256
Properties=species:S:1:pos:R:3 pbc="F F F"
H        9.38692284       7.31907797       0.72105819
H        7.27448034       2.67633343       4.75132799
H        6.19262123       6.84885502       9.14900970
H        9.37543774      -0.14215267       7.42765141
H        8.43434048       3.16626120       7.00416565
H        1.45735002       3.08946824       6.57525921
H        2.15898633       4.04740334       4.67966127
H        5.44952440       1.50708175       9.07189274
H        2.77020550       4.12509346       1.08292627
H        8.51830673       4.82177830       4.17537451
H        6.91077757       4.93634319       4.72100544
H        1.14933646       5.06625509       3.00984001
H        3.68059683       5.26031160       4.49242640
H        5.79274511       6.65176201       5.62693787
H        2.50976372       5.80826330       4.81694937
H        7.34681702       4.45461226       6.81919050
H        4.31643200       3.20250940       2.26625824
H        6.91903877       3.73316646       2.21388149
H        6.77715445       8.05561543       4.14570808
H        2.61323404       0.69261223       3.33464766
H        1.03768575       5.95710707       7.46803856
H        6.84800863       0.04387251       9.18979359
H        8.90487957       6.05956745       1.18998313
H        6.91793919       5.34807158       3.07262921
H        4.64201307       5.15640640       5.22812223
H        2.44884229       5.49157953       1.65727317
H        0.82798320       0.78074259       8.99967861
H        7.19067955       2.11033726       5.36942482
H        0.65289128       3.22411847       3.59543085
H        3.09934545       5.28613377       7.18134880
H        7.83333540       3.89214897       7.19371414
H        0.10945947       2.63169932       7.60691118
H        6.92178059       4.74144506       3.89943981
H        4.45870733       4.88284922       4.55855751
H        8.99368191       8.37597370       0.16404006
H        0.10852928       2.42300940       1.20961261
H        0.25989807       1.71058345       3.52629185
H        8.06377697       4.49491310       8.12855530
H        5.53299046       5.31717968       4.67958164
H        6.96128082       7.14485502       2.51979446
H        7.66389608       7.22198486       3.87958503
H        2.67270708       9.45220375       8.05544472
H        0.26748046       1.92324066       9.26628017
H        3.02005339       3.05782652       5.38334751
H        2.91425276       4.50969648       5.88828325
H        6.14730358       5.52151632       1.81459463
H        1.01260412       3.35493088       8.71186256
H        7.18609238       1.58011687       8.48286057
H        1.21839046       8.24277401       2.75859356
H        0.64483893       7.53317499       9.67041302
H        0.87153935       3.28310204       7.24933958
H        0.94186670       7.91721821       4.82850218
H        8.32981110       0.66986585       8.69043350
H        5.42449665       7.99146080       6.72749281
H        1.06770003       9.63223648       8.22362709
H        3.98434353       0.39524364       3.28577018
H        4.89966202       3.61910987       5.38835335
H        8.87558937       2.01386523       0.20222978
H        8.22800732       3.67107296       8.16467381
H        8.42148876       5.60505533       3.73679590
H        8.56090736       7.82695484       7.06995821
H        6.40308952       4.87194967       5.35473633
H        2.04147768       8.72631931       1.37398434
H        4.87818670       1.01627517       7.27233171
H        7.85659361       3.20073652       1.93172240
H        5.73385668       4.17215014       5.95989895
H        9.27109241       3.70519328       8.02305126
H        6.27137184       1.73508573       0.15765098
H        7.34171104       5.65139866       4.53859997
H        8.18462467       7.47596073       1.94317412
H        8.30727005       6.48815107       3.69005489
H        8.96556473       5.74180317       0.21327366
H        5.27722836       5.64445448       3.57832289
H        4.53728533       7.74632406       4.14967680
H        3.70007420       6.74962282       0.09843943
H        7.88103914       3.43907380       5.16171646
H        2.96608210       4.25284719       0.24372676
H        1.45869160       7.23514700       2.82054162
H        3.29810572       3.48165989       0.56502694
H        1.45443976       3.00870776       0.76580071
H        5.37023115       7.15962362       3.33102345
H        4.88847828       0.72406310       1.75471687
H        2.22275472       7.52981234       7.39675665
H        3.37230396       6.08948374       3.59159541
H        0.03369529       8.96649265       8.90542889
H        4.09221411       8.88438225       8.61980247
H        7.01212835       8.95965862       6.45349455
H        5.49250984       0.25632030       4.94442797
H        5.66713524       1.01995873       2.02557540
H        8.55598068       5.10243225       0.61851537
H        5.59926224       0.56390554       5.69840574
H        6.81425524       6.30262184      -0.02228409
H        0.08918780       5.27069616       3.09816742
H        8.85582161       0.28747863       0.18845254
H        1.26049471       1.78245020       4.56562662
H        2.99456620       5.50142527       9.47901344
H        8.67654610       4.64801979       2.61504912
H        2.66412115       3.46065307       2.01707935
H        9.03686523       1.29350770       4.57548714
H        1.10034287       2.78152180       1.62637699
H        8.87082672       7.95372963       8.64901924
H        4.06182861       7.97075129       2.01048636
H        9.66633606       2.33895445       8.51753426
H        6.05479145       2.68290401       6.85243130
H        4.32501888       0.14049238       9.16708565
H        2.71093845       4.23077011       2.37388039
H        1.24909413       0.97934055       4.08562422
H        1.64873445       7.64885283       6.45028448
H        0.73035413       0.52691972       4.61125231
H        2.68828440       8.36021137       8.53250885
H        1.60091448       4.49779224       1.82082570
H        6.03831196       1.90279555       1.29132926
H        7.60047722       2.59153152       2.54894495
H        9.21551895       6.44133329       9.17858696
H        1.81579542       3.69949937       1.31959713
H        6.53546143       3.73362899       3.06041694
H        7.83266354       6.76067638       2.23090363
H        1.66479504       0.69902223       7.46954107
H        2.03649902       3.22272491       7.23099279
H        0.81847751       3.53209949       4.48187685
H        8.55424023       6.05397224       6.08768845
H        2.93488431       7.48123884       7.98743582
H        2.24391747       7.50582743       2.50689983
H        3.44313741       7.08065081       8.45739555
H        3.96957088       4.62767696       5.30368853
H        8.86744022       1.50346279       3.13634872
H        1.56480849       3.73869300       7.95054579
H        2.20360923       9.15425301       3.51784873
H        7.65336561       5.47170115       3.78984690
H        5.70870066       6.94918633       1.53816760
H        2.98053861       4.09705400       7.35601044
H       -0.01276510       0.73391432       2.40071177
H        0.98610079       7.68232870       1.24331570
H        6.97788239       6.12316704       2.18588638
H        9.21472168       7.94091845       5.90793800
H        0.47592953       8.50736427       6.19597149
H        5.30566645       4.02594042       9.99371433
H        6.05070734       4.61675644       4.22415781
H        4.08318138       8.96800327       6.34418011
H        3.65455151       9.47202015       5.71887207
H        6.69257259       3.68263102       4.63413858
H        5.01688433       2.46488476       5.29904461
H        2.55821466       0.76463056       7.59006071
H        5.33628798       0.47954944       2.67765546
H        0.59767169       8.57461357       4.41891956
H        1.75548363       9.10556030       9.20777225
H        4.50185204       5.50875473      -0.09964839
H        4.46976519       8.58038712       7.23492098
H        7.85162306       3.10420394       4.33206367
H        3.65053296       7.27594042       4.09891605
H        2.89060473       6.81716967       5.34940958
H        8.95250797       1.08808696       6.63821983
H        3.20550704       3.74644709       3.81761384
H        5.33387852       7.99878359       8.62474823
H        2.75808406       9.26785183       1.66759062
H        7.53083563       6.85004187       5.16886282
H        0.62320936       3.41983938       1.30100131
H        8.59580898       6.05262518       8.57836914
H        9.03984261       8.20806026       2.92157698
H        4.25969172       6.73049402       7.42042923
H        0.85421222       4.17968845       0.98276436
H        0.34591991       2.73738813       6.28969526
H        0.00716876       9.40101147       1.47817433
H        4.95366192       8.68217945       5.81683969
H        7.46525717       5.35188389       2.54085040
H        4.05345774       9.44435310       1.29420662
H        8.74191570       8.19439793       4.08395481
H        6.38632822       5.12410498       8.25476742
H        6.58330774       0.64728487       8.43840218
H        0.68989694       8.64460087       3.37296081
H        3.44270706       0.32417554       1.73260748
H        6.30454922       5.62924576       6.05295277
H        2.06464863       4.66089869       3.83726931
H        3.60003209       6.32915497       2.01176906
H        6.89210844       2.77214289       3.17635036
H        6.06789398       6.39908075       0.75608319
H        1.04908144       1.95413697       1.27586496
H        2.01133966       0.21746477       6.03406048
H        1.12473679       6.03043270       2.96239352
H        7.71679688       5.49749327       5.80149794
H        0.02251156       2.29097223       4.39797068
H        9.05213737       8.04068089       1.72301996
H        1.58766413       2.60359597       5.96497726
H        3.90464091       6.01957226       8.92704678
H        0.44191182       7.74565887       8.55616474
H        5.00649881       2.36898899       4.02965784
H        8.69956970       3.44334769       8.78324795
H        2.66985989       9.27341652       6.82758284
H        5.87525988       0.78347546       1.16064167
H        7.43507385       0.81222266       8.91557598
H        1.20139265       4.59680605       4.20514965
H        8.72766304       8.82216072       3.49851656
H        8.57863426       8.46543026       6.48350191
H        0.50856799       8.06457043       5.44708490
H        2.41041827       6.76579952       7.85908461
H        7.39053631       5.65938425       1.68812025
H        4.61795378       5.56629229       8.10800362
H        3.98834872       7.75088310       5.52511692
H        1.92798543       5.32396603       4.19283772
H        1.96551013       9.27179146       7.33946609
H        0.28152439       0.63762707       8.43471336
H        0.29107818       9.27701855       4.73456860
H        4.01737499       2.19469643       3.31140423
H        2.35167408       2.06719971       0.45282194
H        8.16280460      -0.18100567       0.12650439
H        3.44594908       8.00938606       4.36269522
H        6.21117067       4.89107132       0.60381550
H        8.34833813       2.35355210       1.81428397
H        5.35431004       4.54488611       3.17463851
H        8.22970104       6.49146461       1.59375346
H        0.19585879       5.49273062       5.78284931
H        3.02271605       5.63485384       4.19908285
H        8.07860851       2.39199519       8.07452297
H        0.12138900       4.90181065       7.52827311
H        5.85354137       5.38354254       3.00152707
H        8.11873627       1.11337030       6.43638372
H        7.85693979       3.75957417       9.10325241
H        0.17039426       1.40526021       5.31035519
H        3.25306582      -0.37361801       3.04656577
H        9.14949417       4.08465719       0.02969814
H        2.85639477       6.00554991       5.53742933
H        3.74616766       4.94169140       2.92409945
H        8.96951389       1.46897435       1.88619864
H        9.99833679       8.90972233       7.82485771
H        1.32772207       8.91594791       4.99531507
H        8.33465099       2.33939457       3.82347822
H        4.94713497       7.25475454       1.35481691
H        2.31362128       7.14308453       0.13372928
H        1.16115665       5.25476599       7.76809549
H        8.67317677       6.97995234       5.51497316
H        7.90908813       8.72988892       1.81842208
H        3.84366155       2.36593413       1.72011161
H        1.49275124       6.41981506       8.67187881
H        5.17619133       5.92360401       5.47626591
H        9.13828754       2.49618220       3.58697629
H        0.52821034       7.01191568       2.96572065
H        3.16262460       1.65106738       2.57873154
H        2.39155722       8.09180450       6.24716711
H        6.72721004       4.89979792       7.15267515
H        2.28881049       1.35609746      -0.08347294
H        0.19773230       6.94293404       3.88548946
H        7.70004654       4.22849751       3.89221072
H        9.26127625       2.21402335       6.81615496
H        7.46918249       3.37028503       2.95394802
H        1.38837898       8.15607548       0.65451598
H        5.02280712       2.79817271       2.50050998
H        5.19004011       1.22109866       5.21584463
H        9.80299473       1.23153484       4.32073450
H        9.49354649       0.71514690       5.72215319
H        8.63183689       0.01873890       5.02144527
H        0.25443962       8.18629169       1.16085458
H        8.92518520       8.96277809       5.63309050
H        4.12826395       5.94778395       5.66295624
H        6.07419538       4.25848961       1.29271233
H        4.83904552       4.04693985       2.16694283
H        5.21982813       6.28112555       2.22306514
256
Properties=species:S:1:pos:R:3 pbc="F F F"
H        5.12343073       6.09265280       8.52860832
H        6.53537941       2.95928025       3.57289982
H        0.41345349       2.01433754       0.80661988
H        3.03653479       6.89546871       9.06831932
H        6.46797991       2.11986732       1.33929372
H        6.96928358       2.64331484       5.27398205
H        4.01941490       4.27012968       4.42667294
H        3.15658355       9.54602909       4.05685377
H        4.95936012       4.93679667       0.98635060
H        7.79565048       3.33263493       5.87654686
H        4.47723293       4.79868078       5.30142927
H        0.57849765       7.19211912       4.43739986
H        3.90811849       3.08583403       5.99747944
H        6.84686804       3.70992899       7.89172268
H        2.40126514       3.81667185       7.66203737
H        2.03559732       4.83263254       2.59253120
H        4.64008713       0.34146282       1.55340052
H        7.71859026       4.62101126       5.44519091
H        5.05330992       7.89695644       5.12852716
H        4.44404984       2.73157263       2.70233011
H        1.35473704       9.30029964       6.77680731
H        5.95937157       0.14054835       8.89487553
H        2.40490174       6.32258749       0.34997493
H        5.97831011       5.32734537       4.60097361
H        7.30013752       6.20778751       5.85189819
H        0.39373595       5.68563986       4.54883480
H        1.96685553       1.27445900       7.73982859
H        3.75971818      -0.23437680       6.43593550
H        1.97745240       4.40158653       1.72891510
H        4.90407562       5.12413263       7.41585922
H        6.96026421       7.27912664       7.77198982
H        1.33668900       2.21995163      -0.09397506
H        7.55859613       5.21863604       6.33605576
H        4.67001581       0.44064322       2.47583318
H        5.41285181       5.92166710       5.76246023
H        1.13922572       1.92695212       8.54827690
H        3.23325276       1.80739594       4.30417776
H        7.43479824       6.05423117       0.99445343
H        6.94541883       3.85404325       5.01966524
H        6.83139706       6.96992159       0.26825166
H        6.38821745       0.57821059       4.49088621
H        5.46090174       8.33260250       1.06450903
H        9.18457890       1.06383443       0.91682452
H        3.92768908       1.89522827       5.80089283
H        3.20061755       3.09565020       7.00640965
H        5.75548840       7.77762938       3.04717565
H        0.90262944       2.78394866       6.99406099
H        4.90813303       0.28681338       7.07751226
H        2.65190601       2.42664313       0.42108017
H        2.13954735       1.21399176       2.23565340
H       -0.21464171       2.28777409       5.45912838
H        4.75960684       6.41763067       4.71436453
H        6.00923777       9.00687790       0.50860906
H        7.20581102       9.06105423       9.46203136
H        1.43276131       0.74291861       6.19303656
H        5.18057203       0.30725089       8.73394966
H        5.24004078       2.17112279       3.27271676
H        0.57244629       1.19057405       1.32942867
H        7.91807413       3.06406164       6.80726719
H        1.84735417       4.26920462       7.16067171
H        5.22637129       9.01011848       5.42429733
H        0.20827593       7.21756887       8.65649986
H        3.44810820       8.81127262       2.01231027
H        8.03062057       8.32108688       3.43686557
H        7.40785503       1.77001023       0.91205430
H        6.73725748       2.15691996       3.66990089
H        8.36851120       2.67056370       5.44294405
H        6.58013916       8.77353668       3.86252379
H        7.50914478       6.28009939       7.74537516
H        5.35530996       5.92517948       2.92879915
H        6.94656849       6.44194794       6.70194006
H        6.31749630       6.57354164       1.11965573
H        6.98908043       4.48840666       6.77330828
H        6.90685940       7.46906376       4.83608913
H        3.79409480       4.83404064       7.49106789
H        2.53121948       2.82711720       5.38975811
H        8.93261242       4.98175287       8.84423256
H        1.24028575       7.02032423       3.70517969
H        5.44399166       5.17718840       1.74146712
H        8.36560440       4.50871897       2.80990481
H        8.98839474       7.24556589       7.17855644
H        5.55413294       0.44176769       1.01274490
H        3.23797679       8.24991131       4.72472095
H        2.88680530       5.06987715       7.52479315
H        8.27962875       1.13092887       6.28218317
H        6.31323624       9.15468979       7.29336452
H        8.80860519       0.77061641       4.19358015
H        6.57341194       5.48178387       5.54561377
H        5.56922054       0.95109868      -0.21169782
H        9.54790592       6.06907129       8.94367695
H        8.34932423       9.06319046       5.04026508
H        9.00509644       1.82720912       1.18736064
H        1.83010685       8.59407330       5.64200258
H        7.59919596       6.70613289       1.92539752
H        1.86310339      -0.19741917       3.98484898
H        6.35817337       5.72354603       2.17372751
H        0.84808379       5.55711079      -0.39371544
H        3.07266331       3.11943507       3.35838294
H        8.78806305       1.24477959       5.50129271
H        7.69818258       1.15312099       8.93063354
H        0.16056733       0.15843213       4.39437151
H        3.08035254       0.93895882       8.05887794
H        1.55365026       7.63868856       7.18468332
H        6.51851702       3.55818987       0.92808670
H        7.29088354       8.91291332       1.18294311
H        5.69158220       4.53008842       5.29249859
H        4.35572720       1.46807909       2.92319536
H        2.28682995       2.66417289       6.64627075
H        7.51027393       5.36704683       3.02723336
H        3.02979255       5.99911356       1.67595315
H       -0.11796380       4.80828428       3.91923547
H        6.26607990       0.56670523       0.31352380
H        6.40533495       1.43519008      -0.52384955
H        3.70552564       9.05382919       5.22734070
H        0.93413329       6.42404842       7.71231365
H        9.96916866       7.49767923       3.34084344
H        7.21793032       6.38871098       2.71200681
H        9.55700016       2.02642298       7.00681496
H        2.39550638       1.78106987       3.59805155
H        9.18910885       3.48113632       5.48431635
H        7.87101507       7.01764965       6.85077953
H        0.52161330       6.30726290       1.23645568
H        1.37496579       8.53341675       8.58021832
H        5.63439560       5.06390953       6.50773001
H        3.25471997       6.32441139       7.87729645
H        7.61672115       1.47569668       2.06362796
H        8.79905987       1.94146979       4.54887152
H        1.06991315       1.66969788       2.03944850
H        7.95210505       6.00797558       7.00745535
H        5.72569895       7.30821466       7.11671209
H        0.44492522       2.49534345       3.93988514
H        7.95409393       1.44298768       4.41653109
H        0.82514679       0.10518625       2.50403166
H        5.21111536       6.83366537       3.10836744
H        2.71740842       7.10750103       5.33991194
H        1.24262965       0.93245757       4.26334906
H        5.88011026       5.30670929       3.39612055
H        5.38791323       6.15163040       3.79481769
H        4.24169588       8.02062225       6.18878412
H        6.24146605       0.69146663       7.55630827
H        7.06936407       4.72091961       4.52047968
H        5.60826635       0.12279920       4.96924543
H        2.62037349       1.80069375       5.91892910
H        2.21714449       2.26670790       2.44367290
H        8.88578415       1.26665521       9.31819630
H        3.95587111       8.64432621       2.86893225
H        3.16769814       6.39235353       5.84721565
H        3.69948411       7.09658861       5.60007095
H        6.98112488       4.72155571       3.33975673
H        1.76794338       6.32616472       1.00780284
H        4.99522591       8.41233253       3.83684969
H        0.88632345       9.41576099       3.94332385
H        4.01518202       0.43528345       3.53073907
H        1.82888103       3.88491058       8.31876659
H        3.19750333       0.96682042       1.45121193
H        6.18248463       7.34876394       5.70174456
H        9.03327942       1.36920726       1.98494136
H        8.03895950       7.96832275       0.56467718
H        0.84519076       7.76182175      -0.21928690
H        0.40108877       7.13103008       5.99518585
H        8.52980232       6.20753527       1.96172917
H        0.42275953       3.01714134       5.91473961
H        9.72005463       2.11109471       8.73708534
H        6.12440348       7.96650553       6.43755198
H        0.86995310       8.14450550       4.93754148
H        2.74912024       0.72332001       9.70985031
H        3.61227775       6.61723423       3.59134483
H        3.47059870       2.88757205       8.31834984
H        8.50895309       9.43820667       0.79489446
H        1.44173694       1.03664529       1.39152753
H        1.71701944       0.97507811       0.06913783
H        4.15879154       5.40527344       5.83407068
H        0.36703214       3.32160449       1.28124321
H        3.33944964       7.64014864       6.15478277
H        7.60894394       8.11163139       5.72941875
H        8.21359158       7.03976297       3.11591792
H        1.80690336       2.34068561       8.22387505
H        0.27929932       1.62997246       3.41107798
H        7.46084213       8.93468761       8.01589203
H        6.22187090       5.87198257       0.17996396
H        9.66367722       4.03610468       3.61384416
H        8.41937923       8.21354961       7.65357208
H        3.77993822       0.72333431       4.81025648
H        8.36837959       6.86004925       5.74826670
H        2.69066548       9.43100834       8.12288380
H        5.02958059       9.09009838      -0.13237014
H        7.69855356       2.55854869       8.23985004
H        0.18883204       0.49221629       6.50025511
H        5.80308676       9.37872219       7.95835447
H        7.99284554       6.85436487       0.75056940
H        3.51950645       2.83432603       2.00853682
H        9.29759884       8.30758572       7.35826349
H        1.37516987       8.06891251       6.15443182
H        1.16170323       9.49863815       5.51178551
H        2.99077773       9.32542992       0.44098487
H        8.51165199       7.43294525       4.83938694
H        3.83530450       6.71671534       6.99021101
H        4.51384926       1.16654670       4.65564585
H        7.17259264       5.01343822       7.67962456
H        0.09929533       1.30514538       5.69021320
H        1.38673711       7.07515097       5.17372608
H        0.45901042       8.64265060       2.99116206
H        5.08577538       6.42347479       1.74363518
H        0.48049825       8.74715042       2.01311207
H        9.37221622       8.45064068       9.38454342
H        6.04666376       0.56346083       1.97386861
H        6.51069164       3.45570517       1.89422333
H        8.35021496       9.23665142       3.01229548
H        6.93625689       0.82196760       3.54169440
H        0.10136670       6.74505806       3.74424005
H        7.48307180       5.66223907       9.63711834
H        2.94686294       3.95021677       3.89284992
H        7.67965508       4.00235271       7.69471979
H        7.88714314       4.20181131       6.52390766
H        3.36735559       5.13021898       5.13028240
H        9.12830162       1.58075809       6.35927820
H        5.18876266       3.18788409       1.69514632
H        0.91115546       2.43437433       7.83646488
H        2.69338059       7.34684229       2.51024961
H        8.65776157       6.99402332       9.04147530
H        4.93223000       4.40685034       8.31135464
H        3.86504817       5.86234760       3.13247609
H        3.36750793       3.08144045       0.73003966
H        2.18240070      -0.25723794       4.89813042
H        5.63758516       8.58662224       4.66858244
H        2.25214338       3.02014971       3.39156842
H        3.78131127       7.19382191       2.61706161
H        3.10258055       5.86392546       8.60855103
H        1.48375344       4.99729967       6.97987604
H        8.41914940       5.01909018       7.77006149
H        5.65334702       7.37899113       1.21972084
H       -0.16277842       7.19235373       1.91985369
H        2.26248837       7.28776312       9.69457245
H        5.07810307       4.48038769       6.54229879
H        3.88302398       0.52401936       0.23759879
H        7.10419083       0.77276880       1.25237668
H        2.29012585       2.33776903       9.02174950
H        3.17959094       7.38717699       8.16227627
H        7.63413572       7.63490629       8.27369976
H        5.88715315       4.39298058       1.18064475
H        1.31080687       8.75734806       4.31726980
H        9.03390694       2.93294287       4.53555107
H        8.67455959       0.04028457       6.35115051
H        5.48841190       2.66939545       3.93502355
H        1.12345922       8.33749580       3.61903811
H        8.04542732       0.87509352       0.68995565
H        4.48039532       1.89354777       3.66187692
H        1.62273645       0.35606897       3.11094379
H        0.28079501       0.28236639       5.64488220
H        8.92698002       8.39167976       3.69776273
H        0.81426013       1.36543763       7.38828373
H        2.56348467       8.16735744       3.99340081
H        5.19431448       2.91352797       6.26159430
H        4.86421061       5.57052851       4.78899050
H        3.59866953       3.06823945       4.58277178
H        3.13968229       4.90417671       3.37441468
256
Properties=species:S:1:pos:R:3 pbc="F F F"
H        7.53154850       6.08954573       7.62869692
H        3.69847012       4.42321634       4.50986338
H        3.83654189       1.49295318       9.21466160
H        2.52346277       5.64580631       1.39433146
H        6.57595634       1.45329189       3.53460670
H        3.80520082       3.06311917       6.39547157
H        2.37715459       3.33110785       3.18002796
H        7.30125380       1.41323280       2.79986930
H        3.70593166       6.02871990       1.64708328
H        6.02005720       3.30149341       3.64876270
H        3.82588935       3.00807023       4.46525192
H        9.03911400       6.51189947       5.31252146
H        3.74145031       3.20999432       3.47279477
H        9.25620651       3.00844169       8.34098339
H        3.43253565       3.13847828       8.64996529
H        5.62301350       8.61489964       2.40235376
H        4.75668955       6.59685564       1.40982890
H        5.87125969       4.10886765       6.02153301
H        6.24822092       9.41008377       4.96621561
H        5.84667683       4.60694408       2.10049891
H        1.76077592       9.62748814       5.59278965
H        7.00313950       7.07993221       8.71939850
H        9.06380844       5.47770214       0.96161020
H        5.82071686       8.37278175       5.97581911
H        7.07430840       4.83387423       6.58371019
H        7.96612644       6.50854778       5.23359156
H        2.23237371       1.82322264       6.83246469
H        6.17199326       0.55950856       5.90556860
H        2.75757241       2.85031581       9.24224472
H        0.96105403       3.06138182       0.18994176
H        6.98056173       7.52316809       6.60345078
H        1.34744084       2.43277097       8.99900627
H        7.10499239       7.67958832       0.22539678
H        1.45164764       1.92774093       3.91663623
H        4.30680943       9.27367020       5.21689987
H        8.53738117       0.77605420       8.45587349
H        4.17854929       2.66754985       2.52838635
H        8.12873268       6.31132269       0.93396151
H        6.65541744       2.67374539       2.79493093
H        3.26525617       3.95736647       1.85376751
H        5.39837980       3.19273210       4.38324451
H        6.02793932       2.23477960       3.39633560
H        9.86512947       0.44097626       9.27311325
H        2.44326735       3.28675413       5.74973965
H        4.02273178       0.64481491       5.74452066
H        4.60643959       4.91171312       3.25060892
H        9.50145531       2.20092773       5.68669319
H        3.47257209       8.05816841       8.02201939
H        2.17298913       8.56017876       7.82879496
H        2.75162387       8.95423222       3.60887265
H        9.10344124       3.96656370       7.47733259
H        3.44781423       7.54358292       6.26894093
H        8.39498901       1.60812259       1.68691921
H        6.42885637       8.84660435       9.02396584
H        4.15413857       0.13828695       3.94237137
H        4.32404900       8.54091835       7.63199806
H        5.47453308       1.23368204       5.69656467
H        8.31825161       0.49600163       1.43056571
H        3.58988690       2.32789707       7.09994125
H        8.55192566       1.42053330       3.22654963
H        4.65056562       1.06614578       4.93557501
H        1.77877927       0.48051837       9.10002613
H        3.27090573       9.01566982       2.56213021
H        5.74016476       1.75073314       4.63279390
H        9.23707390       8.49219704      -0.22505091
H        4.71693993       2.62217212       3.67538166
H        5.84028292       3.61430717       1.50861371
H        5.53250313       8.22556782       3.85221410
H        7.14963531      -0.05455733       8.43730068
H        0.83264083       4.19248486       3.89877653
H        7.09485340       0.36397961       4.16204596
H        5.83757257       1.11092913       4.00005388
H        2.17112470       6.53915977       1.32589197
H        8.14946175       4.86787987       5.53228045
H        7.97274065       1.95193017       5.94069290
H        3.34614444      -0.13912572       4.96647692
H        8.28952408       1.61419094       8.94707680
H        0.76739490       5.22457266       7.40626621
H        7.31562805       6.49030018       2.05446506
H        6.08083248       4.77021933       4.50298691
H        0.28348181       7.38220835       7.80314636
H        6.49522161       0.17804991       0.46828327
H        2.78751421       5.72458982       4.45841122
H        6.26163721       1.87896776       9.62714291
H        7.74213696       0.13130078       6.38083315
H        7.14408875       1.26898539       5.35028887
H        8.96738338       8.64132881       3.83334470
H        5.49147892       3.90301013       8.91223526
H        6.53720284       7.45427990       4.56888294
H        1.96815097       1.75599349      -0.27379656
H        7.45550728       1.58356774       4.40020943
H        1.33125281       1.08257985       0.98858869
H        2.42439771       9.10382271       5.00267744
H        6.66945601       0.38974467       1.84433830
H        1.85516024       9.81651974       4.38191557
H        6.80924225       4.55024242       3.74222469
H        0.86977047       5.48003054       5.33691454
H        4.46707058       3.07507992       1.78362334
H        7.41375971       4.87889767       4.45611858
H        6.56075382       2.06224465       7.53413010
H        1.15343630       8.23457146       2.31729889
H        5.45664024       8.89210987       9.36886883
H        3.24761081       8.25777054       4.84493303
H        7.41507435       3.50150871       7.90459824
H        9.39389420       5.59299517       2.54939127
H        4.50593424       5.89107752       7.17411947
H        7.00072718       2.47879934       5.28602791
H        1.60934889       2.97894692       7.22912788
H        5.41233301       7.36239576       4.14472866
H        4.97651291       3.28186798       0.98331326
H        8.00721741       3.32221460       8.58492565
H        8.23157310       9.93865967       7.10313463
H        6.20983362       0.80909860       7.01980782
H        8.08217144       9.19994450       4.12632561
H        8.51576233       8.21954727       6.99578190
H        4.41198349       7.03904581       7.46050882
H        4.63208675       5.67200422       1.68915176
H        0.54233205       1.21295249       7.61658096
H        4.46838903       4.82007313       1.91665566
H        9.60682869       2.97099781       7.02627993
H        0.41383016       7.94271755       0.36836141
H       -0.23529373       4.08723593       2.00988483
H        4.81590652       7.52225065       8.64881134
H        4.76204777       2.51522946       8.04922962
H        2.30061984       5.87585306       7.92321205
H        9.01333141       1.19561625       1.05175042
H        9.34911537       0.65152496       5.10378551
H        8.12785721       0.72933644       0.33034593
H        7.12465763       8.67561054       7.60614014
H        4.49885273       7.80799961       0.99811620
H        2.92804384       2.26643324       5.18828440
H        8.31534958       0.69815129       4.63881254
H        3.68040943       6.07441425       4.22948217
H        2.18964767       3.54833388       4.65995073
H        4.58754635       6.13683033       5.85180521
H        7.65713644       3.88335824       0.66005713
H        7.36482477       4.60614920       2.80656219
H        5.15352249       2.35154366       5.44734097
H        1.90603364       4.38831615       8.22380352
H        7.25286484       8.24170589       4.38981152
H        6.19014406       3.14717507       5.35695696
H        6.50354052       0.66461796       2.84934425
H        3.51666546       0.86165828       4.33841228
H        4.07581472       4.30933428       6.04914522
H        2.16821337       3.48837328       8.16211033
H        5.31304502       6.44242907       4.96160221
H        4.09453201       5.35554504       6.10265160
H        4.52370167       7.15910006       6.15014267
H        6.56310654       4.07313061       2.58328891
H        3.21760750       7.34028149       8.75702000
H        5.04043818       7.67564917       5.38983011
H        0.47457215       6.66015625       3.93031502
H        6.32752657       8.06159592       3.27182388
H        3.89452338       7.51107502       5.02000618
H        6.32048082       1.73121953       2.28843069
H        3.58192277       6.45957804       5.36283779
H        0.77905118       7.96568775       3.58655357
H        8.48453999       7.19444752       2.04326725
H        4.41402960      -0.06378374       6.23269033
H        0.05714336       6.87944746       1.98196042
H        9.28355980       4.56969976       8.70281410
H        6.99042845       3.31377268       4.81801939
H        0.27498993       1.76972449       6.77636814
H        6.94684887       3.70054674       6.68595314
H        1.81962013       8.08651638       6.06560564
H        3.42591691       4.88523293       0.98937845
H        1.56245506       6.37679625       2.41676474
H        0.99155796       1.33124316       8.54221821
H        8.74104881       0.20937654       3.43322659
H        1.85900724       8.96577263       0.07900617
H        1.12612045       8.77765942       7.61580658
H        3.03536797       5.22490644       6.48034286
H        2.57453156       2.67310739       2.16152644
H        3.42545605       7.31838560       4.06198883
H        0.92497921       5.59186792       9.14700985
H        2.15232682       7.75504589       3.26568699
H        3.47676754       0.28856465       9.33885860
H        4.43281841       4.81526804       0.59716219
H        5.18880939       8.04109955       1.77332759
H        4.75718546       4.75447035       8.43655491
H        0.98253840       8.87655163       5.49507046
H        1.51416993       7.44423962       7.47360611
H        4.85148668       2.65459561       7.17862988
H        5.95640850       7.57169914       6.62723541
H        1.93212819       0.72573441       7.05657816
H        5.87774229       8.28666687       8.08382607
H        2.59434605       4.28600597       9.32305622
H        8.59250832       0.61693668       5.77468967
H        4.32568836       1.67979252       5.54160833
H        8.18377686       6.66264534       9.34628677
H        4.94548368       4.60396051       6.93236876
H        0.67230427       1.73425210       0.25684974
H        8.96741867       5.37776947       4.99549150
H        2.47832084       0.23512255       6.24157095
H        2.75803995       0.32033259       2.61537504
H        6.29847908       6.77731657       4.02419233
H        0.98694879       7.23017406       6.29246140
H        6.98623896       1.36758006       6.40130186
H        7.57963657       8.04585838       8.31158352
H        1.54205811       8.49649715       3.52309299
H        3.79627132       4.88926840       7.11893606
H        7.72765064       7.51667833       5.95907688
H        7.21104050       5.88502741       0.34595868
H        9.21067810       0.71442086       2.26340699
H        0.50156355       0.59334433       1.44214869
H        4.72220993       1.55658686       3.16506052
H        7.02759266       4.45839691       1.22687387
H        7.78311110       8.26971054       3.58804727
H        8.05480289       8.44998837       5.44962883
H        6.74412441       9.16290760       6.29141855
H        8.89441967       6.01496506       6.81753445
H        1.16443014       2.21068192       6.02670908
H        1.11713469       1.09370351       6.81704140
H        9.19199848       6.93437243       8.56847286
H        2.92416883       8.95623684       6.58929205
H        6.97777700       1.03263497       7.83032179
H        4.95580864       1.05097234       0.46601188
H        7.23282766       8.33614826       2.51492000
H        4.51833153       8.09887791       2.56101441
H        0.92786044       7.01656437      -0.05765856
H        6.51861191       5.59386349       5.84282875
H        0.36125833       4.14737511       2.98126745
H        5.85242748       4.69774532      -0.08816694
H        0.57298237       6.56132984       5.52888918
H        4.61347580       5.61935568       4.51755810
H        2.17487025       0.58254260       3.39030600
H        4.10094643       6.93213367       0.61179560
H        1.13995075       4.51240206       0.63269901
H        1.74347270       5.90898752       5.62668705
H        1.54801726       4.60104799       6.05043077
H        6.92510986       5.97420788       8.89629078
H        7.87187433       9.12519455       1.55139005
H        5.34418440       9.36755943       0.76600224
H        6.95364618       6.90041018       5.65645313
H        1.93005383       0.05924839       8.10349560
H        7.38992119       9.87140369       3.19540882
H        1.47644556       1.81037951       7.64243460
H        2.89006805       6.18410158       0.71817344
H        0.74114466       5.92352486       2.51553488
H        0.81502229       3.07636523       8.63211823
H        8.91757488       8.63432598       2.66694570
H        8.71617126       4.85786676       3.49402809
H        1.92017543       1.15691400       6.04505587
H        7.08950996       3.11251760       6.04505634
H        3.79534698       7.73616314      -0.03625768
H        0.50205457       1.75067592       1.49677324
H        5.43325663       2.90240788       2.84381628
H        3.41186881       3.30608344       2.38300633
H        4.90150595       2.38743734       1.08903670
H        9.11686230       7.15741014       2.89424968
H        9.26176357       0.12843637       6.26846886
H        3.78350210       6.34003401       6.57446575
H        5.69122171       1.06977808       1.13270187
H        4.70258141       4.16308069       4.65697622
H        5.19452095       0.47194451       2.59758806
H        1.86108422       4.63065290       1.67893267
256
Properties=species:S:1:pos:R:3 pbc="F F F"
H        9.18304348       9.10519505       9.02147388
H        1.65486228       5.12806749       2.88281059
H        5.36547709       2.84113741       1.02621520
H        0.82122636       3.19914794       4.01019859
H        5.96929359       1.15899706       2.97486973
H        5.66870356       5.08031464       8.64980221
H        1.57140136       3.20481896       8.95068073
H        7.15407610       5.92730427       7.37209606
H        4.09147692       4.07167053       9.14307404
H        7.25509167       3.98865485       1.00024986
H        5.65455389       2.99325585       3.57074046
H        8.34566498       3.23279643       4.52775812
H        3.17591310       2.40238118       3.70004392
H        8.92354870       2.73502541       7.26708460
H        5.78452873       0.13002613       9.01607227
H        4.41194534       9.25323772       1.90871632
H        5.77339268       8.09873199       1.63866663
H        8.07552528       1.38836527       7.78029871
H        8.13191128       9.16260529       5.71283817
H        3.43915963       6.63111019       2.82133341
H        1.85234666       2.49545932       6.70207357
H        7.98838663       5.22819567       0.92633039
H        0.34398305       3.69166970       9.01121044
H        8.71446609       8.02168846       5.85657835
H        5.49854469       7.23065805       8.00192642
H        0.77192301       6.75804281       6.03493643
H        2.70454574       5.26765251       4.93052197
H        6.08516407       1.14875567       5.70838928
H        2.85331202       0.65158844       0.58167571
H        2.20492172       3.45421147       1.41108263
H        8.81267262       6.23507690       5.93516159
H        2.04685640       2.06961012       8.69296551
H        3.82229567       8.36920547       6.68225098
H        2.06226492       1.24548614       7.45081615
H        4.45615482       9.10004330       6.91601562
H        0.27375594       1.90126038       7.48960209
H        3.91323876       1.27973843       4.45180893
H        1.76004946       8.54111671       7.54168653
H        6.13775921       4.31247902       2.51157022
H        5.37266207       4.95173645       2.60026050
H        6.22354650       3.54411888       5.84605742
H        5.66208601       2.14006019       5.12737131
H        2.06284237       8.89968872       2.99338078
H        4.60915136       2.87664056       5.20244265
H        4.02234221       0.67139190       7.08041096
H        4.16387558       5.85372972       3.45453906
H        2.10716248       3.38444376       5.98039961
H        2.36543798       8.06811333       5.46700430
H        2.72764921      -0.14025167       7.68514490
H        3.80938911       8.92982483       5.84853506
H        0.54802126       3.10312295       5.22807789
H        3.44988942       7.85676622       5.47082758
H        9.77161217       1.13426208       4.33120584
H        4.87065411       6.95233488       7.04724693
H        9.08693314       0.25099519       4.30734253
H        4.48123884       5.65082169       0.02044086
H        4.00821161       3.78830028       5.47713137
H        9.10895157       9.29571056       2.95446777
H        4.08091307      -0.16726415       8.03738594
H        1.17920899       3.20189714       3.02129960
H        2.79349947       0.65643865       3.38128638
H        4.52200651       1.31041718       8.25135326
H        3.25147176       8.68034458       9.12020111
H        6.20840836       4.66031647       4.72504425
H        2.92253971       1.07158554       8.55452347
H        6.39929295       2.15483856       2.59668112
H        1.38198864       6.19665384       1.29340255
H        5.01122904       0.62195152       3.49975252
H        6.04355335       8.84661961       0.19252890
H        5.99479532       5.97193766       5.46653414
H        6.68105221       1.88513362       4.88820028
H        7.97866821       8.47930813       0.79864037
H        5.18638182       8.50166512       3.14813542
H        6.77787161       4.39040422       6.05374765
H        8.77706909       1.66849434       6.94186068
H        3.69252753       7.30532122       4.33531857
H        6.41557121       4.28191042       8.45516777
H        1.52248180       4.68111753       5.00816441
H        8.87464809       7.24489832       1.41123486
H        6.96258783       5.46643686       4.57469177
H        8.37927246       3.74640751       6.74579716
H        2.56448078       0.93069953       1.65021753
H        0.76106632       6.48225498       8.01147556
H        8.23811531       8.60177422       9.06036472
H        8.45159626       0.64749229       5.09479427
H        6.16308260       2.60655856       6.28964472
H        0.26213807       7.95092630       5.30938196
H        5.36757994       4.50739145       6.53025103
H       10.24430180       6.71865082       2.65651584
H        3.80334473       1.98252141       6.68738937
H        7.35429287       1.63535655       2.92791700
H        1.15890598       0.11256890       2.94437790
H        1.49743021       9.11333752       5.34538364
H        6.52878904       1.17990172       0.01897163
H        0.83001381       1.98274004       3.35654473
H        5.66232109       7.62217140       0.32034132
H        3.90924788       1.91958916       5.70544004
H        5.98829222       3.53346372       6.95585537
H        5.12117195       7.49972677       4.83681297
H        5.66964626       3.37294340       7.90543175
H        0.37298071       9.04481220       1.15889919
H        3.91685462       0.15059280       4.38501310
H        0.64355099       0.16879705       7.03902721
H        8.56707096       2.48528028       8.31265640
H        8.89711761       1.98183179       3.86728168
H        3.57354951       3.56191659       8.08777142
H        0.15249804       3.17485857       6.19029570
H        0.97318465       4.74580717       0.70354563
H        5.84185553       4.10596085       3.75510144
H        3.70977211       2.27625895       7.82950735
H        0.89042556       1.32579958       2.33602619
H        7.22083187       9.25448513       8.08284569
H        5.49514341       1.60442150       7.03725624
H        9.19612789       9.20608807       6.59167480
H        6.98764038       7.42592764       7.01181459
H        2.49221849       5.14766216       3.77171826
H        1.92016077       4.45794392       1.39152193
H        1.81395626       0.62594903       8.94914150
H        5.80983448       6.13183403       2.14302111
H        9.37699318       2.48937297       8.93080807
H        2.03150201       5.58087397       7.59612370
H        7.12742376       4.51592588       7.37399340
H        5.78489542       5.98022366       8.14191437
H        3.68382597       0.08273976       0.18983433
H        3.22225261       5.73852396       7.34668159
H        0.58076423       0.26161832       3.89041495
H        8.39252853       1.32314694       8.85305405
H        0.07270586       0.91725141       0.85037088
H        6.37036943       6.40453863       9.45128727
H        4.40588284       0.14040247       0.99066955
H        3.42190385       1.43502665       2.72930527
H        1.51254880       1.11667502       3.43155503
H        3.20894051       9.17586517       4.90227461
H        1.10710263       2.87001252       6.14859247
H        4.62207174       5.18830395       5.60454416
H        8.18059254       4.26652241       7.73496532
H        6.48230505       3.44913101       3.09956908
H        5.13482523       3.24493361       6.20396996
H        1.13723195       3.65508342       1.11972582
H        7.31689930       6.14570189      -0.45310885
H        7.67007542       4.22128820       4.70599937
H        7.09991360       0.40802583       3.07715034
H        2.27270412       4.55066824       9.07822895
H        2.75586033       2.59678841       4.69806385
H        4.43317842       3.40319991       1.46298981
H        5.11880112       4.36847019       5.13503218
H        2.61522722       4.07855511       5.53347111
H        3.75937796       6.18211460       8.76146698
H        0.67817247       4.54801559       2.31084061
H        3.58791423       8.57040596       1.03836977
H        5.59094048       8.89018631       6.68756390
H        1.81777537       8.45135117       4.52915192
H        7.66989851       5.12087011       3.80302715
H        2.40861106       0.96846342       4.36170864
H        5.26774693       1.35523653      -0.16386679
H        3.96082306       6.56863976       6.51233578
H        0.74155754       7.95552921       2.55828643
H        0.22020879       0.19751677       2.14812303
H        6.84927940       9.27120399       6.64168549
H        8.93133736       6.07959843       0.58410621
H        0.66196573       3.00118327       0.09633011
H        6.94056654       1.78012717       1.60594487
H        0.44624022       2.00828481       6.46015549
H        5.96447897       1.53652680       8.39315796
H        1.48002994       7.55002451       6.13502073
H        0.34112695       6.07904959      -0.13228303
H        0.89345574       4.69374037       8.90255260
H        1.56464517       2.36790442       0.66382056
H        9.12396812       7.61906719       2.90356851
H        2.26343942       8.26457787       6.67695570
H        1.86131406       7.50581884       7.32607603
H        3.50960612       6.25283623       5.07826805
H        2.02728534       8.94810963       0.09082274
H        4.18763494       6.23233223       2.18210673
H        1.81086469       3.97022891       2.57560182
H        0.98058540       6.82610369       0.56307703
H        4.32251501       2.22742176       9.34723759
H        4.50078869       7.07687664      -0.08643776
H        4.99443722       9.89744568       5.58187294
H        2.44419813       3.78466630       8.39152145
H        7.61473942       0.78879231       6.46575117
H        1.15043330       8.95615292       6.37393808
H        2.81452990       2.70726442       6.95174694
H        4.99015141       9.01753616       9.61121368
H        2.91593075       1.72709429       7.52286816
H        7.03159714       5.79276752       5.52279425
H        5.83577204       5.82536077       6.63151693
H        9.22285748       0.78265989       7.92868757
H        4.13741302       3.09409308       6.51190042
H        8.61582661       0.42919317       2.11641955
H        9.15263271       3.77554893       5.18554449
H        0.35475606       2.04229403       0.80405813
H        5.46898746       5.45330524       3.48191404
H        2.64384842       1.68134046       6.46407747
H        8.75151157       2.03755283       0.45558223
H        5.39401579       3.77579618       1.83001256
H        0.14491875       8.07300568       6.64881897
H        6.39573479       0.63484949       8.02666664
H        8.15207767       4.96342993       9.14112854
H        7.82333660       3.95966339       3.26864290
H        0.97159827       5.22602749       6.98201084
H        7.71023798       8.60691261       7.06424046
H        0.35448411       7.81364155       1.36671901
H        2.50690961       2.83113217       0.52882618
H        0.90662640       2.51385736       1.62620485
H        3.27537942       3.19610286       9.47158337
H        7.74642086       3.07157302       2.22641897
H        0.02176927       6.85423231       4.13429546
H        8.85634136       7.11315346       6.45153093
H        6.53444147       2.61683989       7.80159140
H        0.65488130       4.16210985       5.18926430
H        8.27068615       3.09343553       5.69824362
H        0.58523440      -0.07790336       8.27358723
H        8.16344833       6.25117397       8.51851940
H        4.55971766       8.48692131       8.63050175
H        8.00877094       2.54654551       6.80483294
H        4.56108141       2.80516672       8.44318771
H        8.57648277       8.73405075       3.93926191
H        0.19361368       0.48527575       9.22245407
H        9.32690334       5.18109655       0.31990707
H        8.49412632       5.07412052       5.59663725
H        6.92503262       4.35232162       3.65163374
H        8.89565754       5.12322235       7.87918282
H        1.02220547       6.14935255       4.54004335
H        4.96377516       6.59673595       3.68708873
H        9.32326984       1.38020265       5.66498995
H        3.85258651       7.17860889       0.82029212
H        0.89810914       7.50492525       3.87168670
H        2.37127900       6.89402723       3.18653440
H        2.12520838       4.01955938       4.21014786
H        8.92973995       4.18727875       8.51282692
H        7.67650938       8.74458599       3.33992076
H        8.52489853       2.28473759       2.16522026
H        8.33364868       5.76668596       4.28969526
H        4.22206497       0.94794399       9.36121082
H        5.53042698       0.29662138       0.61275351
H        1.84392607       2.91201520       7.90163374
H        5.18774939       7.23100615       2.30393577
H        1.67295432       4.38667059       6.24844265
H       -0.13549943       4.24735117       7.54507732
H        1.57771802      -0.01978299       1.76566720
H        2.74929500       1.37054992       5.25518751
H        5.22001648       0.23200355       7.94868708
H        8.53873634       2.17594957       5.00798798
H        5.43288898       5.93095207       0.16212915
H        4.30183077       2.13378263       1.27912700
H        3.27544570       4.45021105       4.52320004
H        5.68301153       1.02332044       1.54465067
H        5.89582396       0.24082400       7.08305216
H        1.59476304       6.97393513       3.86190939
H        6.22359514       8.35188675       8.21633911
H        2.73751688       6.87945414       5.75712061
H        4.67799187       3.59888458       3.87200928
H        4.44189358       3.45443892       7.50334358
H        1.57872868       0.66140801       0.42446578
H        2.26837254       3.69930482       0.15397851
256
Properties=species:S:1:pos:R:3 pbc="F F F"
H        1.31193459       2.22079110       0.79864460
H        3.20038295       8.10671616       1.36340463
H        6.93657064       1.42706668       1.09408355
H        0.16791564       2.50889659       3.18591619
H        6.49246264       1.96183622       3.64829540
H        4.41900635       6.21012020       7.84291124
H        1.71599567       3.76326990       7.13500547
H        7.00762939       8.49336624       8.74868679
H        3.50336695       1.57492495       0.83645666
H        8.01705265       3.60096717       1.65404296
H        6.29539013       0.77123922       2.29327321
H        7.85802984       2.22336411       4.13007402
H        4.41139030       2.62326169       2.81333303
H        1.28413796       2.57798386       8.63258553
H        5.46165848       1.75860584       7.37334728
H        4.10995102       8.37454510       3.58807731
H        6.02843094       8.34665775       2.41081238
H        7.18433475       2.43838882       6.29377556
H        9.07812977       0.66365671       0.58509094
H        2.14046431       8.14749622       3.97898197
H        0.40932035       2.75128126       7.38149786
H        7.02592659       4.09352922       8.77654839
H        0.88889784       3.34436131       9.70083618
H        9.71059227       6.99339914       5.74145985
H        5.96593523       5.87881660       7.91148138
H        9.09386349       4.84720850       9.00653172
H        3.91494131       5.60905170       4.84274244
H        7.34811449       0.63399190       4.45826912
H        1.42622411       9.31549835       1.82921946
H        1.79109228       1.80184734       1.55543935
H        0.00554602       4.89947891       4.46318865
H        2.14503264       3.04886055       0.20128696
H        3.83218670       8.16490746       6.80014658
H        1.75277483       0.99162501       0.25939938
H        6.53978014       8.80964470       7.52244520
H        0.60508817       3.39454579       8.16374302
H        2.79013395       9.41321754       7.81092215
H        4.80718040       0.60474062       6.76533127
H        7.37931299       4.45887852       2.58974552
H        7.31582737       6.45227432       3.26519251
H        6.00204325       3.11236978       3.41084075
H        5.46196890       3.64581251       4.28563499
H        4.11496878       8.21277523       5.70764256
H        5.67304277       3.07901645       5.27319956
H        3.19200778       9.16446877       9.18260765
H        6.28339434       6.86160374       8.71138859
H        8.18348503       4.42634630       5.48728085
H        3.23262882       8.08382893       4.10627604
H        0.68849111       9.02373791       9.09795094
H        4.02130890       1.92699993       4.91464901
H        2.83039451       2.16852808       7.65653467
H        4.96780968       7.42746401       4.79416466
H        2.07442713       0.99301779       4.97639322
H        4.89805651       2.71253800       8.40172863
H        3.46772027       9.12118340       4.48535490
H        4.99412155       2.26400280      -0.04383578
H        3.09063673       3.53877926       5.13017178
H        8.84049320       5.69620562       3.62886643
H        4.39483738       8.22377682       8.90831852
H        8.89463425       1.04478836       2.21176171
H        3.18022037       1.29480577       4.34987497
H        2.84721684       2.24497128       9.13833904
H        2.41839123       5.37115908       8.65656471
H        3.33053088       6.79783726       5.02973223
H        2.89528513       0.97879034       9.15388489
H        7.61162853       1.47834933       2.04096723
H        8.43052197       6.37948132       2.40189838
H        6.24828529       6.01614952       4.28713512
H        6.75395632       9.06153870       0.80255765
H        2.66477036       0.58935165       6.28718710
H        6.06847763       0.60976058       5.54381323
H        9.59561348       8.94243717       0.75290453
H        6.37241268       7.13595295       4.64086199
H        9.38506603       3.99566531       7.57140064
H        2.04059291       8.58196545       6.61573601
H        5.02499533       8.63848591       4.77828407
H        4.49339056       2.52555537       6.72537184
H        2.12383413       4.49589205       6.23383427
H        1.16735899       6.97946739       0.74001729
H        5.81686497       7.82620955       3.42084050
H        0.36392960       0.85781866       6.68686867
H        9.29461193       0.35909256       3.00019145
H       -0.02512059       8.06811619       7.54226112
H        1.15163946       8.37445068       7.23505354
H        1.65883338       9.13417435       5.72124624
H        6.61400318       3.19343424       5.67461348
H        1.32414639       8.02131271       4.63678217
H        6.80706549       5.33079481       3.09193587
H        0.18320210       6.88564348       2.18553591
H        2.48293185       2.51623416       4.80481815
H        7.48566294       1.69499564       3.00399137
H       -0.26371545       7.93290567       2.83708024
H        1.00210834      -0.05395317       4.35552645
H        6.21371078       0.69027251       3.91635466
H        2.91500211       4.86908531       3.86690187
H        4.88733578       9.11602783       8.32471848
H        6.03759909       1.72004187       4.80863047
H        5.76550055       2.79183865       7.77185631
H        5.10647011       8.81188488       3.48648572
H        7.06328726       2.23780751       7.82491016
H        0.53747696       1.26670766       1.02213931
H        5.48883104       2.94991541       2.53519487
H        1.60527360       9.31779194       7.90085268
H        8.05982876       0.30328834       1.14627850
H        8.41326046       8.90957832       3.69963813
H        4.92877722       0.63384801       5.27977037
H        8.24268818       0.58368552       3.37622333
H        9.29943275       4.20683336       1.60513055
H        4.57626009       5.03514051       2.25710130
H        4.16831493       3.48543262       7.45710230
H        2.32001591       1.79735088       2.99246359
H        7.35822916       8.05560207       0.21444403
H        6.18450451       0.15532881       6.64194059
H        1.09827304       7.91563368       6.17801571
H        9.24867058       1.48212802       8.44160461
H        2.09701943       3.73199868       3.82863212
H        0.25248504       3.88116407       2.49752212
H        1.41766560       9.13345814       0.42988470
H        5.76838017       5.22267628       2.10721374
H        0.41575316       4.31238937       0.12391686
H        1.91910195       4.06973839       9.17802429
H        5.24942636       4.39016390       7.54421043
H        6.36057472       4.67218494       7.31391573
H        2.43246031       8.57479954       9.65778542
H        1.74809289       7.64955902       9.44892216
H        0.81062549       0.99993467       2.05584335
H        8.70338917       2.39949536       2.17976999
H        7.96525908       1.90132797       1.24506080
H        6.70598412       7.51439047       1.82357562
H        4.94170761       2.53357601       3.84114075
H        2.06408167       8.36036968       1.16734421
H        2.38236356       0.43303895       2.46817350
H        2.69512534       9.31258106       5.45102215
H       -0.02176160       3.84252214       5.56077814
H        4.83140135       5.80615950       6.51832628
H        7.65376186       5.05076075       6.41624498
H        6.91039371       2.73480082       2.95694137
H        3.61576366       2.86704874       8.30232239
H        1.96772623       2.73685360       2.17769575
H        9.67548466       9.24734497       5.83747768
H        5.97649002       4.60144901       1.22818756
H        6.84604931       8.43864250       3.99583769
H        7.92010689       6.04978228       8.26196289
H        1.20636058       1.28008580       2.93633461
H        5.55627155       7.69767952       0.89054823
H        5.98085213       4.49230242       3.60562444
H        1.10188699       3.44011068       4.62482262
H        7.54501534       6.69150686       1.73978519
H        2.43372440       3.76422954       2.79576015
H        3.03802228       5.18804979       1.54801178
H        5.29731226       8.12966156       8.29257679
H        2.55501246       8.53049564       2.76327658
H        8.59519386       8.65656757       9.26333237
H        4.63474512       1.75226760       1.45771587
H        7.02276087       1.70340860       9.35458279
H        6.76238823       5.77259445       6.61020994
H        1.17177951       8.12930965       3.44835472
H        0.44337031       8.91794872       1.80644679
H        4.91146421       9.06168938       5.71394396
H        0.35749641       7.73038197       9.64367008
H        8.72008801       4.65981913       0.66060811
H        7.15733576       9.93008518       1.99026489
H        1.61982477       2.82042909       6.69092417
H        8.40066528       8.73009968       1.20337141
H        3.05824447       7.22793150       7.54827833
H        9.52488422       8.93500710       8.15952206
H        0.47051385       5.59436512       2.25373030
H        0.18064186       2.38149905       2.04674149
H        0.41976160       6.27826834       3.59749556
H        2.01516533       6.55617762       5.58002377
H        5.89251184       7.33187056       6.22341061
H        6.12450647       4.38093615       5.16433096
H        2.54231024       1.67044151       0.44916213
H        2.52180624       6.59250069       8.40716267
H        5.48032570       6.34515953       5.38408947
H        0.40510798       5.89061356       1.21871459
H        5.03074598       1.49783695       8.44742966
H        4.49928713       4.69098091       8.66382599
H        5.22683907       0.39636216       2.81801152
H        2.09979534       5.55758190       1.18843758
H        5.88393927       1.58013988       6.34173822
H        1.54197252       1.02848434       7.14547110
H        3.74633646       3.41141844       6.31928778
H        4.44947958       7.39096737       7.21938705
H        0.97338808       0.70314980       5.44217253
H        8.07596016       5.20503330       4.47813225
H        7.65055704       6.61861372       4.66701078
H        1.30805969       9.59729862       6.68863010
H        3.13800359       5.19408751       6.35351658
H        0.61769044       2.15395665       4.12268209
H        8.69892311       3.73205757       3.81732392
H        8.97714710       3.60803151      -0.10797392
H        8.80546570       8.59041023       5.25021410
H        1.80410528       2.02465034       5.45485926
H        6.29606819       5.51922989       9.01777935
H        6.00383806       2.10215521       0.67071348
H        1.15536940       7.11005592       6.85109234
H        4.64949894       9.69111443       9.28462315
H        7.94253826       7.58702469       2.34806895
H        6.65288067       3.95297670       1.83947885
H        8.55994320       3.64562821       8.28934097
H        0.52765304       1.02996111       9.32892704
H        1.32583392       8.39530849       2.41729617
H        3.00762892       4.14631557       1.90352488
H        8.84435844       2.99200702       1.14858317
H        2.24673057       6.63501930       0.20154288
H        8.11803055       2.74598122       3.13174367
H        0.19023710       7.94005966       5.17980289
H        9.00700188       4.74007845       6.09586763
H        7.70281172       3.10305023       9.15590954
H        8.52911758       3.14953876       5.25887728
H        7.40354919       3.96263719       3.97277164
H        0.65974516       0.74016196       8.23843670
H        9.09891510       5.45576239       7.57821751
H        6.86673832       7.13560295       7.68573761
H        7.83967638       4.49498415       7.66882753
H        3.86662126       1.83290100       7.43873167
H        7.92645979       9.31122303       4.60817146
H        1.71261680       0.99467695       8.65524578
H        5.86095285       6.75969505       7.42992640
H        0.47544655       3.71670842       3.76551723
H        8.91570663       6.62758541       4.84640026
H        0.88258922       7.76324558       8.24916649
H        8.71964550       3.59906745       2.60798025
H        5.70473003       8.33976555       5.68029785
H        1.77707851       9.22599030       2.98896742
H        3.64591837       5.17379713       7.68115187
H        0.35847375       7.33966684       4.21352673
H        2.52624536       7.15755653       3.57941389
H        1.33992004       3.43615079       2.68054843
H        7.34673452       3.79521108       5.17101192
H        8.83693695       7.74638271       3.85279059
H        9.05956364       0.05736168       1.67575526
H        8.83422947       5.78126478       5.49086809
H        2.83889866       9.15150070       1.72363126
H        6.47492170       0.41574457       8.23172092
H        4.01784372       0.68312848       7.86259699
H        6.00790596       8.56350231       4.58020401
H        2.25723052       6.86745071       6.76210690
H        7.77261209       3.85976195       6.52305555
H        3.55623555       1.93254554       2.80842328
H        2.40491772       0.02372177       3.86475921
H        5.31330919       8.40335369       7.24708939
H        4.36277866       3.57069397       5.27433968
H        6.80770302       5.57469511       0.98682845
H        6.18345976       7.92085123       9.50021172
H        1.69637477       2.66708374       3.74387479
H        4.07067060       9.33749294       1.64451826
H        2.25019288       8.48269367       5.00283289
H        8.10560799       7.56240749       6.31858873
H        7.01180315       8.03662205       5.86994505
H        4.39304829       5.90535307       2.91716242
H        5.09468079       3.73197341       0.70497501
H        5.57135630       3.84901428       9.29845142
H        2.15935993       0.55232626       1.36979365
H        2.51433206       3.92094398       0.76759893
256
Properties=species:S:1:pos:R:3 pbc="F F F"
H        2.00348234       2.63689518       0.11587857
H        2.01784658       4.67095041       3.40839839
H        1.02767479       7.87425995       3.11097884
H        0.42819360       2.33899069       1.41996145
H        9.77538872       1.51634943       4.32885551
H        4.50485897       5.19304657       0.62248677
H        6.56411457       3.41137004       2.35254383
H        5.97575426       8.95442581       7.88084078
H        3.39961672       8.35526943       6.45151234
H        7.02559853       4.26060152       2.97951651
H        4.20558691       7.90803003       1.27993846
H        7.93993664       2.93895817       5.69328547
H        6.10583401       0.42687258       0.84178579
H        2.67254233       3.30265808       8.87086964
H        4.93199682       3.20280051       5.36739397
H        5.03844690       5.61608315       1.77547920
H        6.82331419       5.63435221       2.63099051
H        4.97452641       4.28419209       5.94629049
H        1.88748646       0.58205009       8.95306110
H        2.31342173       8.06911850       7.59329605
H        0.68746954       3.84285998       5.53223133
H        7.10875750       2.28276253       9.20359325
H        0.35191837       7.60351086       1.16502929
H        0.24394381       8.01048756       8.85349751
H        7.38974571       8.57721233       7.79520941
H        1.65674782       5.22216892       8.36237049
H        3.67917800       4.88319588       5.45647049
H        1.29228234       4.60078287       6.51133537
H        2.08844876       1.30721426       3.09986520
H        2.20715880       1.50237095       1.98439753
H        6.41565132       4.11570883       0.85759252
H        3.73067045       3.08496308       7.20354652
H        2.40916967       8.99727726       6.79123592
H        1.82255709       8.97545338       1.28305578
H        9.30435276       1.06305242       2.06361413
H        2.25469828       1.44560218       6.20404673
H        1.21391201       1.16867042       7.96152592
H        3.76443338       2.08805704       5.17673063
H        7.86052608       6.84766960       1.27445495
H        8.50000477       4.85854959       4.75488424
H        5.97464275       2.90436053       0.79885429
H        4.35292864       2.56207705       7.94508219
H        3.17604852       7.64132786       3.14429426
H        6.51328468       3.07988691       4.57501125
H        5.13473272       1.03746128       1.66743004
H        7.98311043       6.16533184       7.69064188
H        9.79880714       5.57180071       8.41276455
H        4.84925127       7.53158140       3.08178449
H        0.66089118       0.93205607       7.05547810
H        2.97986126       1.88734114       7.38217115
H        4.95634699       1.60525084       8.64983559
H        5.68748569       4.59270096       6.52456045
H        0.91755503       1.15161943       2.30367970
H        4.52884817       1.75852990       7.15986347
H        1.97524619       0.57921022       1.60185015
H        5.77311373       2.21063924       9.59626579
H        3.70114851       3.29877162       4.20839310
H        9.49129677       4.28807020       3.85127854
H        2.08276343       9.24579620       8.35115623
H        7.82294130       1.22642493       2.47175574
H        2.58167171       0.94211334       7.71178675
H        3.05642390       1.79259706       9.67291069
H        0.61821496       7.23444128       9.71664333
H        2.80146194       7.54866743       6.88148165
H        2.98325539       0.55083960       8.78312302
H        7.60596800       1.94795525       5.53499365
H        1.99460483       4.15172529       8.93527508
H        6.20440912       2.25707722       3.47409487
H        5.84308338       6.65515709       1.68251061
H        5.19907141       0.94808018       7.79197693
H        4.36689568       4.38169289       4.92021847
H        0.50720906       1.28450286       0.74869692
H        5.09217834       9.25647354       3.81237960
H        0.47166288       4.42765427       9.02405834
H       -0.09507661       8.01378918       6.01317310
H        4.10946369       8.15159893       3.21143699
H        3.08628583       0.54578900       5.70933199
H        2.66036701       4.32405233       5.56783104
H        1.35034108       6.70878935       1.29521799
H        5.23694706       1.70216918       5.22661829
H        9.01052761       1.70317447       5.83369112
H        8.31105709       2.24611163       2.98874211
H        7.81064129      -0.09549449       6.87644100
H        1.34342194       8.60204792       9.10313511
H        3.11663246       8.88809872       2.19297504
H        5.02438068       3.06878185       6.49843645
H        1.19110751       7.30779314       3.91904855
H        4.38072348       4.70856953       2.97459602
H        8.39105606       5.93015909       4.97548151
H        1.83710027       2.67833114       3.82825971
H        4.66051006       1.87270701       0.22223802
H        1.26896846       8.98931217       3.59888196
H        2.73621130       8.65923405       3.55083776
H        5.50173950       0.46667391       6.84092522
H        2.01596141       3.48811269       2.40425253
H        8.03756142       1.57749343       9.01077080
H        5.21998549       2.06144977       3.86634684
H        2.55171204       5.52083349       6.58825588
H        3.68499136       6.08739758       6.13789272
H        5.95155668       1.50283039       6.22704554
H        0.92190099       3.58304453       2.12028289
H        7.96549225       4.50106859      -0.20012684
H        1.18499172       1.81355429       6.30865479
H        7.94735384       9.06271267       0.68115687
H        8.71381283       6.50008917       2.42985916
H        2.74252534       2.54672480       2.11815357
H        0.49428090       9.16072559       5.69259834
H        8.79850006       4.28628540       8.27505302
H        0.70127672       3.94416070       0.39085868
H        3.94156933       1.63193440       8.00123978
H        1.90719950       0.65572137       4.09933615
H        8.26588440       7.73118210       1.12899780
H        7.29475307       8.66108608       6.43846369
H        0.06640335       9.22820568       8.90100861
H        2.22646880       3.79892778       7.79484606
H        6.08000517       3.46916842       6.64747810
H        6.96433735       2.98576379       3.68782282
H        8.70984745       8.56822014       7.83610535
H        6.18734503       7.67138052       5.44429922
H        4.11512423       4.59856462       9.23608494
H        2.61881065       5.83447886       1.59753966
H        7.07600451       3.18978786       7.78030539
H        7.99648952       4.91446257       7.95516872
H        2.93934894       8.53539181       1.19216979
H        2.98985052       6.87987232       2.13360667
H        0.50268239      -0.10498822       2.79691267
H        7.64295912       1.77327287       0.44191742
H        9.20342255       1.57916462       9.59061623
H        7.33467150       7.95980644       3.33832550
H        4.25853205       9.51640034       4.99157238
H        2.23523498       7.23536205       3.63677335
H        2.48482442       9.64618874       3.08219576
H        5.93243980       7.44938660       3.19040179
H        7.23742819       6.08181047       4.42995119
H        5.80658293       7.25593376       7.14345455
H        8.60885048       6.03703213       8.51969910
H        7.91149998       3.72099423       0.70188916
H        5.35595083       2.43136573       7.54943752
H        2.70447779       2.62597442       4.66705084
H        1.09574723       3.34849381       7.38043642
H        7.46906185       5.53850508       0.30197525
H        6.55743122       8.39952564       4.36726713
H        9.69138145       6.78422213       7.33129835
H        1.95280564       2.31978869       2.75016832
H        7.18529940       5.44384623       8.74931335
H        6.03663015       5.44913101       1.96374452
H        8.65308666       2.20671153       4.20045471
H        1.50740838       6.40724707       2.75192785
H        3.76990819       3.47091317       3.06061006
H        1.17936110       5.64293861      -0.28209203
H        6.28720951       0.68743742       8.17041969
H        5.16221476       6.85647297       2.38277912
H        8.80452156       2.29092979       8.12240314
H        4.92000294       2.54149246       0.92019492
H        7.87082434       2.85043049       8.65724182
H        6.01482773       5.29466915       7.48009491
H        0.06405238       7.06251860       3.51566291
H        0.91259497       7.15983629       2.18811059
H        4.71353769       8.50210190       6.06424570
H        8.90193176       8.53510666       0.37253681
H        8.27085781       4.54448271       1.41289461
H        7.89776278       7.10128832       8.06151390
H        9.11971283       3.49697328       4.78453970
H        7.89936733       8.75227737       2.47737646
H        0.64613092       5.29512882       6.22265387
H        8.35354996       0.45173568       7.89855433
H        0.99078387       2.74182796       4.97572708
H        1.69982386       2.41926575       1.51158035
H        1.51310098       4.74561453       4.73444414
H        4.18825722       5.27680492       6.98215389
H        6.55386782       5.19671011       5.57155514
H        5.47201061       5.24219656       4.51606750
H        1.97826874       1.54258418       0.94868523
H        3.08225942       4.42604923       8.92182636
H        5.81798887       7.01079416       8.15572071
H        9.43962097       3.09972548       0.98052549
H        4.89520073       1.76622283       6.15639496
H        5.46428537       3.77388573       7.48895931
H        4.86985731       6.77696800       9.42057323
H        5.22644520       6.37449455       3.30732083
H        5.46677113       3.23777342       4.39373732
H        9.85116673       2.82300615       5.71627665
H        2.14460468       2.82437468       7.20540190
H        2.83099818       6.35109425       3.77866244
H        0.84649712       1.14759374       3.42293787
H        7.56455421       5.23747778       6.02657747
H        5.98409319       6.55536556       6.30460548
H        1.78359926       0.38122550       0.44967389
H        3.20197439       5.81180620       3.04024315
H        1.74077404       1.00162315       5.34908438
H        8.56793404       2.34899330       1.50787663
H        0.50364637       1.87760830       8.58623791
H        1.23979807       8.42080593       5.27003956
H        2.49480653       8.55729771       5.72715473
H        5.51332235       8.50994968       1.87764072
H        7.29336166       7.90389585       8.74923611
H        0.56161696       6.68971682       4.82702446
H        5.72542095       6.67411327       0.44177434
H        9.07289600       7.66419744       2.14213610
H        5.97142506       1.75346208       1.17798388
H        7.84063911       2.15839744       6.58291817
H        1.09335434       2.11562967       0.01664624
H        2.09651661       6.76814938       4.55752850
H        4.53423643       7.30351019       4.17838717
H        9.67268562       2.56624532       0.06899759
H        1.78186834       7.22622824       8.89382935
H        0.75961298       0.28403434       4.49164343
H        8.47466278       7.50269747       6.65290165
H        1.00000012       5.14061117       7.40573740
H        8.07848167       2.95136595       7.28704548
H        8.32472992       4.26781559       5.98120737
H        8.59385204       6.14228487       1.35975146
H        1.18327451       3.69195509       8.67258930
H        8.24257660       5.87414837       6.39079857
H        9.05042648       8.89926338       6.71313000
H        8.72579765       3.25059986       9.24153423
H        3.75203586       3.12126350       5.88242006
H        7.22941542       8.88607502       5.32724571
H        3.19447684       8.96307087       7.42090607
H        8.24257088       9.18076897       5.73171091
H        0.13131739       3.09886479       2.59064436
H        3.18896341       4.18578672       4.16572142
H        1.46730793       9.02795982       7.35850191
H        9.25461006       5.93610620       3.64047885
H        4.96631813       6.49202824       4.91481829
H       -0.19061193       8.74199867       2.01815081
H        2.41074824       5.62041903       5.44808054
H        9.49956417       4.48021650       6.75123358
H        9.10522175       6.48440027       5.70302582
H        3.41192818       2.32871532       1.14871693
H        6.84068394       2.05350518       2.35831499
H        8.73146820       6.82412767       4.46698856
H        8.80077648       0.44868627       2.73277760
H        9.29817772       3.00910068       7.31749725
H        4.05531025       7.54440594       2.21046495
H        7.23294353       0.78864491       7.15906811
H        4.89001989       6.55237246       8.20267868
H        5.07820463       8.07094288       4.68454266
H        0.77519971       8.77806187       1.25554895
H        6.75155067       1.57056153       8.24699974
H        3.89977455       5.28052282       1.76459622
H        3.65059519       0.52620584       2.85276127
H        7.17027235       0.68372989       9.56338406
H        3.20653296       4.64377737       6.43978310
H        1.70891833       7.66209745       1.63612020
H        8.22202301       7.75767612      -0.27054268
H        0.80418402       1.67865145       5.20037556
H        6.73485231       8.26249218       1.38749874
H        0.22018383       0.77343518       5.67028284
H        8.65981865       0.55389279       9.06459713
H        7.47057438       0.41530886       5.98466444
H        3.89582944       7.84254503       0.05917913
H        6.99512148       4.26326180       8.28800297
H        3.49883962       4.35907030       7.56700897
H        1.97209072       8.36814308       2.69183016
H        1.18982744       3.91681886       3.36353946
256
Properties=species:S:1:pos:R:3 pbc="F F F"
H        4.21698999       1.13788390       1.99397874
H        0.90125936       4.00411654       3.19495273
H        2.03563619       6.90400076       2.32013130
H        2.19525480       4.05863285       1.38796806
H        0.28249529       1.40983188       5.73924828
H        5.92750692       1.77600348       9.07995415
H        6.46332598       2.90231442       3.18123198
H        8.06333065       0.09693488       9.40942574
H        4.12039757       7.33400202       5.32128906
H        5.52360916       4.80606413       8.13227844
H        6.85722923       7.76730108       7.93457174
H        8.41230488       5.25942326       9.33730125
H        5.95323229       0.22556782       2.66709304
H        2.47343850       3.09340811       1.61922467
H        5.56828499       4.70597363       5.35742426
H        7.64408064       4.19925833       6.00934982
H        8.39203739       6.36704063       2.28288603
H        5.69972467       6.32094955       6.20447350
H        4.52414227       1.82258284       9.14317513
H        5.27556992       7.17716694       8.15407085
H        1.72694516       4.14357138       3.89904785
H        6.91560602       2.78209972       9.17911816
H        4.06320715       9.53668022       9.17733669
H        3.05891728       9.07609272       9.26746750
H        5.38480806       2.51538134       5.80847311
H        8.84160709       5.70718670       0.95270377
H        3.38971829       5.41649866       4.07692575
H        9.20430279       3.46915841       8.40585518
H        1.08286381       2.27395535       4.72945118
H        2.56306481       1.32711780       2.85514879
H        7.99720383       2.85612583       6.83496571
H        1.38304293       7.23141336       5.33798933
H        1.58597517       7.76716948       6.91656923
H        4.66150045       2.43646550       2.06588459
H        0.20025359       8.71195698       1.02197468
H        3.21972919       0.38933590       2.93466663
H        8.42361927       9.06060886       7.72957706
H        4.67409325       9.11347389       4.39250851
H        8.27823067       7.19905853       1.88420045
H        0.78618371       6.02153206       5.61490965
H        7.35833740       3.04903126       1.10031259
H        6.93815088       3.56872606       7.97327709
H        2.47365618       5.50825071       2.41740918
H        3.94087744       2.42265701       5.54932785
H        4.85019732       1.80448914       2.90128756
H        0.82317269       7.05497885       4.18760681
H        1.42329133       6.28993273       8.87168312
H        3.14507127       8.95233727       2.68634748
H       -0.06470738      -0.15939598       7.51572752
H        4.17725897       0.32910860       7.00938606
H        6.77932644       0.02385396       9.35118198
H        6.40200329       6.32976389       8.12200069
H        4.38861132       0.53103369       0.84709674
H        3.36901236       3.59472179       6.91817570
H        3.62824583       1.74720609       1.48943949
H        6.79254723       1.54981816       0.52253360
H        6.45073605       2.17306113       5.04814196
H        9.15249920       1.90332878       6.49966717
H        3.82959557       2.69808960       7.57579517
H        8.32058144       1.74364877       1.47989500
H        6.41873026       9.38653660       7.14817858
H        5.90387011       0.14330968       8.80165100
H        2.27993846       6.97251987       0.15875357
H        2.31812382       4.56934309       6.31589460
H        0.68111306       6.39299154       7.93890381
H        7.17427969       8.47812366       5.58343983
H        4.08618021       6.05962086       1.10127604
H        4.52133417       1.62991881       4.11151266
H        6.72540808       4.12943649       2.82490039
H        6.80456924       0.36005053       5.50534296
H        4.30845690       6.79045630       4.15004253
H        8.38374233       3.31467581       1.11168540
H        6.86780357       0.28840518       4.42435503
H        0.16071463       4.36102915       7.91392994
H        7.72855282       0.59994310       4.86000490
H        4.34107733       9.04098225       2.77298832
H        4.81261492       5.90957975       6.12857866
H        2.37284803       0.95667732       1.30667424
H        2.56321907       8.14646816       2.25409055
H        4.08008718       4.77412796       4.30466604
H        6.56197691       4.03300571       4.52462244
H        4.70755386       2.37074161       0.72334450
H        7.32419825       0.11328777       6.86674547
H        0.13559066       6.91245413       1.19521499
H        3.22768831       8.11087132       3.50771284
H        4.60301971       6.12546492       4.99751568
H        0.34683737       5.92671633       1.78835976
H        5.98587894       4.00635195       0.45580631
H        6.79021740       6.85211134       3.95390749
H        4.47602654       3.48722529       2.57791591
H        3.67001629       8.63957691       7.72575045
H        1.65777051       9.09132767       5.25292826
H        3.49462342       8.19468307       5.43518972
H        4.43118572       0.66977602       5.87870932
H        5.44334316       3.44780421       2.20368910
H        8.10329533       3.20531917       8.17788792
H        3.65460110       1.63627124       2.73385572
H        2.65265846       3.59798694       6.22906256
H        1.44479489       9.16729546       6.66785431
H        9.36415195       2.21914220       5.09272146
H        7.88516521       4.49794292       2.46126962
H        2.34430933       4.84550524       4.56462955
H        2.06126618       2.07960773       6.80356646
H        6.70766973       0.44125447       1.39959705
H        7.53303862       5.89397335       4.60970879
H        3.38006091       3.55831623       0.41293022
H        9.46853352       0.24754721       4.07744646
H        0.87396342       4.91747618       5.82576323
H        8.81694126       2.31376576       0.92787308
H        7.13187695       3.96251822       6.88093615
H        1.63695598       2.51836729       5.68275070
H        0.75992078       0.95699292      -0.22961053
H        6.00305176       7.17575741       7.32957315
H        0.13745229       0.84767020       0.91330695
H        1.53709400       5.26727629       8.71673489
H        6.25195837       2.64811563       8.19642067
H        6.92515373      -0.04483801       3.46207690
H        7.51111412       7.74100351       4.51633406
H        8.49775982       7.29008579       2.97738957
H        3.10944843       0.15395078       1.89678371
H        4.31804848       2.71122885       8.48508644
H        7.57524443       1.64449704       7.71309280
H        7.53311110       5.38008213       7.53224611
H        5.74577188       6.56586266       8.84137821
H        6.87058067       4.48155594       1.82316661
H        1.31136632       7.86771297       3.64927268
H        7.58907080       1.17519224       0.04911346
H        8.87109280       7.87623978       0.99108893
H        5.99966288       8.94758129       0.13324742
H        3.97674346       9.29379368       5.33163738
H        2.17089748       6.92087889       3.43100357
H        1.88299131       8.70830345       1.84883583
H        1.54590607       6.16340685       4.39809942
H        6.00596714       7.11247492       5.08229923
H        8.09757519       7.74582863       6.48342037
H        8.33344841       6.31534290       6.17544603
H        7.41374397       7.12753344       2.60191822
H        6.80208015       8.28235531       9.23517609
H        0.29093009       1.39971662       4.61580944
H        1.20207381       9.20292854       0.20173085
H        9.51243973       9.68903828       9.50716972
H        4.06574535       8.03159809       4.24425507
H        9.18324375       7.07058287       8.22410488
H        0.06668469       3.70339441       2.38450718
H        7.72526598       6.16412115       8.63867092
H        6.01388121       8.03026867       2.27292609
H        9.02374458       1.38046443       2.09774995
H        1.52712464       5.14480019       1.50316691
H        3.03722692       3.87382102       3.33722901
H        5.77253437       5.39483833       2.31603265
H        2.63517857       6.11341238       7.19838715
H        4.20776415       7.86494970       2.43135929
H        9.52279854       4.72919083       6.80555010
H        5.15231562       3.15843749       3.33511496
H        9.29712296       6.03852749       8.98252964
H        6.27516508       7.31448507       9.57822895
H        8.85591507       8.40098190       4.97322273
H        6.93439817       4.91666412       4.87540150
H        3.80093718      -0.32575861       3.81567121
H        8.74591732       9.45202923       0.89596325
H        8.34248447       1.75264859       3.66518354
H        8.79106045       0.63824445       8.62288189
H        9.32197952       0.84041750       6.72647190
H        9.30111027       5.13280725       4.90460491
H        7.81646442       3.51382923       5.06351709
H        2.03551340       0.03292819       1.06486261
H        0.70487601       2.95022368       3.41168642
H        5.54233980       1.77114820       7.76988125
H        2.19783783       2.65205383       4.12703514
H        2.50403428       2.13340187       5.13807011
H        4.20412159       5.02005053       5.52128792
H        5.39112473       7.94797421       0.31961507
H        4.78318882       0.66979593       8.46895885
H        3.54118228       3.62528515       8.01119423
H        6.09415913       8.35953712       8.13558006
H        7.87327576       4.95440817       1.43596196
H        7.84189510       3.24960136       2.00859427
H        3.43102694       5.28792810       7.38111925
H        7.18571615       5.52651644       2.29766297
H        5.33036470       5.57046318       6.99805021
H        5.73571444       7.14261627       4.10918760
H        3.06079698       1.81524479       6.99940538
H        1.88591349       3.01808000       6.48474646
H        0.35042289       9.12565041       6.35861826
H        0.47672400       1.85101712       1.96474397
H        5.96957874       3.70284629       5.45503569
H        4.37813711       6.30824566       9.35958576
H        0.22913750       8.68068409       2.23200631
H        1.04760730       5.30309677       2.73782873
H        1.62881196       1.53805625       5.54451656
H        6.15131426       9.05626297       1.46834087
H        3.19659567       2.58143091       8.43663502
H        8.91386318       9.64163589       5.78579521
H        2.69370699       9.13470173       4.60053444
H        5.05604172       8.91576004       2.15688896
H        7.59178162       6.73778439       7.54366016
H        1.41756058       8.26895809       4.70202589
H        7.97102165       7.68457651       8.42841434
H        9.39613152       5.31065369       5.96673536
H        5.33681726       1.13441563       0.40646622
H        6.57350063       0.80654883       8.56045532
H        0.39970231       1.72572541       0.49488863
H        0.42959133       6.57811737       6.43769550
H        4.92243576       7.14883614       3.11825776
H       -0.06863797       3.53517151       9.35746574
H        8.70912933       6.54723930       0.16147450
H        1.15286338       0.56689674       4.70137310
H        8.48884010       6.16534424       8.00264740
H        8.64298820       3.98707128       5.56815100
H        0.31126487       2.28172016       7.89266253
H        6.83808470       5.54498720       3.74870181
H        6.63455391       3.15769267       2.15142632
H        0.81295896       5.18962383      -0.05185168
H        5.04522562       7.71034670       5.21472645
H        8.84041595       0.79804426       4.89436388
H        8.39133263       2.46209812       9.28390503
H        4.68127108       5.61809921       4.11716032
H        7.39565134       7.97027302       3.22580338
H        5.41289711       8.01213264       6.57361889
H        8.09091759       8.56450653       3.77011728
H        8.58759022       2.47388077       2.22295451
H        3.25868583       5.33357906       1.02750373
H        0.05676351       8.19600487       9.35820961
H        8.92553139       7.19902563       5.24207687
H        6.05798578       7.97293997       4.45025969
H        7.64174128       9.11945820       2.54073620
H        1.29971826       4.34221125       6.97352028
H        8.78401470       2.83806586       7.52229881
H        5.63740778       5.73663807       4.53113174
H        3.98020315       9.05889320       1.64949226
H        6.13616562       7.48754215       1.12532401
H        0.36932328       7.62328672       6.15552235
H        6.90909719       8.48794365       2.29524064
H        0.46840495       3.99307203       5.51675510
H        3.10956717       6.03295183       0.09903542
H        7.32377529       1.20982051       6.41448689
H        9.35449791       4.55027342       0.53854543
H        4.73367643       8.36496735       3.60767365
H        0.94205195       0.26982892       3.20959044
H        7.23790216       7.88941622       1.55399263
H        4.69363070       5.27643013       8.85993576
H        2.00734520       1.35053706       4.37447548
H        7.61371279       0.08400121       1.32961237
H        0.17720146       1.00226557       8.09088230
H        2.07344270       8.97121429       3.14546418
H        3.16688776       7.90525627       8.93022156
H        1.85500360       3.78577542       5.48394918
H        5.86267757      -0.17437232       3.91031051
H        0.46718720       0.46306917       5.84642982
H        0.31114537       7.57842207       2.73708177
H        7.98879004       0.42957607       3.81268597
H        4.68801641       6.37378788       7.12058353
H        7.54772949       7.47473145       0.37222749
H        3.16836405       3.62135696       5.24465847
H        3.03564882       7.26381350       5.80938768
H        9.53428078       4.26987696       4.47849035
256
Properties=species:S:1:pos:R:3 pbc="F F F"
H        5.92933893       8.48697376       3.55910015
H       -0.13516019       4.93785095       2.84917831
H        4.45372677       5.82601929       0.15584600
H        2.55662942       6.30172348      -0.08625363
H        0.49958354       2.95893097       5.00087929
H        6.93597651       1.89064288       0.38791543
H        9.00203800       3.75665879       2.36351705
H        9.38448524       8.29207039       2.18014669
H        4.58978462       6.71319532       5.99121284
H        5.06243229       2.74522042       6.85446787
H        6.52148247       6.34719563       7.80666494
H        8.11006355       7.69853735       2.01336408
H        7.97183609       8.67249870       0.53493285
H        6.07764816       3.13064647       0.53834301
H        3.09165025       3.90285301       5.95776033
H        8.03467846       4.82901096       6.19672966
H        0.43164378       5.72028732       1.12761450
H        7.19190884       7.19943905       4.41963387
H        3.16809130       0.54130173       9.46899414
H        5.64189291       6.45184946       6.62142515
H        2.53284001       4.90892601       1.43763757
H        3.23449016       4.57917881       8.90607643
H        3.31603408       1.38606846       8.04093361
H        2.38634539       7.15519047       8.01895618
H        3.62887359       3.17481208       2.20972991
H        8.83688736       6.12014818       2.10958409
H        2.69471526       5.21890783       5.78687572
H        2.14967871       3.53913355       7.35108566
H        2.74498034       2.50224996       5.15901947
H        1.23336530       2.64519620       3.86967063
H        0.67516375       2.14077473       5.78542709
H        9.24542618       8.16165924       4.32982635
H        1.60827434       6.50918531       7.87765503
H        3.38599491       2.12799621       4.41168118
H        9.09770012       7.11096287       2.19468093
H        4.10621309       2.87136817       6.20630121
H        4.83843470       8.77443981       7.14766550
H        3.71272588       6.76601744       8.54121017
H        0.80808806       3.60796618       3.84351873
H        9.41933918       6.44761038       5.35847998
H        6.79263020       2.15010047       8.35789490
H        9.09615612       2.83727646       7.14355230
H        2.21101785       6.03630161       2.89862967
H        6.54020977       2.84022093       3.61892200
H        4.92703676       0.79035068       3.89194512
H        1.34919155       8.03241730       3.01697206
H        1.22994339       4.37508011       6.06287670
H        0.49888301       0.73898697       1.12738454
H        9.00752354       9.21141434       1.03482926
H        3.73958278       6.68385553       7.30065680
H        6.73822308       1.30909431       7.55921984
H        6.72410011       5.56665754       6.95068884
H        6.28537846       1.21692705       4.08132887
H        4.22859335       2.76645541       8.64973354
H        2.78810620       2.25485659       1.04346430
H        4.74136639       5.81873989       4.46382570
H        7.95155907       1.65262055       5.52880049
H        7.76176691       8.88687706       5.63597679
H        6.71609354       4.31011772       7.75806999
H        7.19395971       0.27601746       8.66645527
H        6.23382044       1.50067484       5.56868315
H        5.97634029       8.99190331       1.49861825
H        4.47868729       4.89125919       7.67944956
H        3.76249766       4.64926338       6.41240931
H        9.30614853       6.26926136       6.41678905
H        5.93569469       7.68891954       4.56256819
H        4.95166349       6.60394144       8.83508873
H        3.92008090       0.98350716       3.60453057
H        6.95747375       4.88273048       5.33038759
H        8.08381653       8.60162544       7.48893118
H        6.73899364       6.66223097       1.60040855
H        8.19211578       2.74756551       9.00378704
H        8.63234043       2.60011888       2.16889238
H        8.57637501       4.83134842       8.78527260
H        8.69544792       3.92042041       7.03315115
H        5.10044289       0.70333523       2.49678230
H        5.81516171       3.57902265       7.02017355
H        4.18313169       2.86083007       0.69810492
H        1.32173967       6.50996447       3.12672043
H        4.63676500       1.56312740       4.55739450
H        4.60744143       5.21066236       3.04283214
H        5.52643108       1.86872351       8.50300407
H        9.12917900       7.01126194       8.04240704
H        1.17323923       5.46206856       3.02112508
H        1.87807655       8.98019505       3.89265060
H        2.32753253       5.87836742       5.02384853
H        2.21134830       6.37293386       0.96861738
H        5.55707264       4.69469547       9.62800503
H        7.50084543       5.10222292       3.67895317
H        3.73435307       5.69308138       1.24977314
H       -0.25105190       5.33272839       9.86792278
H        1.16625679       7.59630299       8.40408230
H        1.77896011       8.18990803       7.61597109
H        1.08114421       0.81694937       5.09792233
H        8.33619118       3.47801447       0.32405594
H        8.56571484       8.05337620       0.97985816
H        1.92479622       0.78171629       0.44642574
H        4.09491253       9.24076843       6.35879040
H        8.66740704       7.84022093       8.38680935
H        0.27113149       2.78925633       3.09395576
H        1.32247388       5.63683939       4.32760859
H        9.13715839       5.90585279       4.44063091
H        0.24965957       0.08895747       8.72063541
H        6.51787949       9.07732201       4.23755646
H        6.02926064       5.59061766       4.54413128
H        2.57655811       3.88475156       0.52033240
H        1.13227081       9.10589695       1.63802528
H        1.44705558       5.82229090       5.41666746
H        0.72056222       2.17972374       0.85594463
H        8.58815479       3.17028642       3.51540089
H        1.10974431       3.93330431       2.55516624
H        4.64740086       3.05749202       4.97668552
H        3.19492841       0.70030695       6.25697899
H        0.45659870       0.97150725       2.23918867
H        2.66290545       5.72463226       6.71354294
H        6.31112385       3.54694343       8.59826374
H        7.95751619       0.19267973       4.42223024
H        4.84913063       8.79268265       3.00057030
H        0.49803954       7.66445208       3.76566386
H        5.09273100       0.69555515       0.31616530
H        5.84824181       2.79040647       5.20865202
H        0.45489779       2.50148988       8.44564152
H        6.17246056       6.61795092       4.80642366
H        4.59166193       4.55685329       0.70623958
H        5.52408028       3.75261378       9.15555096
H        2.83928442       9.12977028       5.39123821
H        1.48034692       2.96158886       0.37359887
H        0.24924703       8.00855446       1.18871808
H        7.33547163       9.62900352       7.17233372
H        2.55833387       8.26703548       6.44165516
H        0.23450133       9.25236225       4.45560217
H        0.66088581       4.68867779       0.98177642
H        0.88138467       8.34879303       5.38144588
H        3.76195550       7.80307579       6.75694990
H        1.08681214       8.28342342       6.63459635
H        8.28194332       5.67863750       5.43104506
H        7.38018227       7.81854582       6.50351715
H        7.70719242       8.48089504       8.84307957
H       -0.13938841       0.20605271       3.38149643
H        0.76236320       9.14735031       0.57411045
H        8.13789654       0.34277388       7.89765501
H        5.56471252       1.75762665       2.75213003
H        2.30862737       4.91089439       7.30691004
H        2.36597347       3.37033868       1.66576910
H        8.44541931       5.06143951       7.31249046
H        8.71621609       0.66867763       2.09525871
H        8.78234863       7.48943901       5.64720917
H        0.05293008       5.78597069       3.31718135
H        3.91682720       6.43674374       2.03841209
H        3.52497983       6.47455359       4.81246471
H        0.19762947       7.12480116       6.12544107
H        2.60101938       9.52210522       2.43242288
H        2.18670511       2.96383262       6.24035072
H        4.57683325       3.94326091       1.60854554
H        0.91112405       5.78296947       8.19547176
H        7.49561691       4.70471096       9.57703304
H        9.46998405       0.57904720       6.21545553
H        4.36487389       5.41361809       6.81762028
H        2.04944086       0.58098018       5.57614422
H        1.24195206       2.83406758       2.54198313
H        1.39387608       9.13118076       2.60630441
H        8.77130318       8.92417717       9.05447769
H        1.77205110       9.01808929       6.34702206
H        1.68318164       5.69689751       7.20510483
H        0.45838499       5.62006569       5.45564032
H        4.90970659       1.61297536       1.11422801
H        2.34867311       2.92309403       4.17134571
H        9.10169888       1.86389220       7.70071077
H        3.53783369       0.85567611       5.30884886
H       -0.24420425       1.41030991       3.03819060
H        1.34991276       6.73438072       4.83630991
H        5.48445749       9.47737026       8.49303532
H        7.68869781       1.08165765       7.01108885
H        2.52705574       1.41391766       7.07570267
H        5.09702253       7.09897614       7.76739168
H        6.58819389       5.31233311       0.40836209
H        7.77337313       5.05115938       2.16212702
H        4.93743610       3.91298771       8.20688152
H        6.06979656       5.38532114       3.38153410
H        5.35438251       5.50505257       6.18916035
H        5.84329414       7.14094305       3.27562428
H        1.62346041       7.16415167       0.38478094
H        1.15484095       4.03269815       7.21509933
H        6.75165939       8.53507900       5.30097866
H        4.18152952       0.23605269       2.66439891
H        5.80054092       2.83599281       7.83367014
H        5.46245146       6.27237177       1.05507290
H        8.75171947       7.79983997       3.46218324
H        2.77783680       5.16766596       3.01643300
H        0.11712272       1.15022683       8.53880119
H        5.72244072       8.24942303       8.21767712
H        1.27890766       1.39183116       1.24166453
H        8.67525959       1.29826462       4.45680237
H        3.82408714       8.49331284       4.83980989
H        6.18300390       9.18662548       0.36834034
H        7.52676153       5.93130207       4.34369421
H        4.69671583       8.87351704       5.30054617
H        9.50479031       1.70968115       0.26933482
H        6.96512747       4.45691967       6.62463522
H        5.22038603       2.46051455       0.30535823
H        9.29870892       9.13704777       6.81843328
H        9.21647739       1.39270055       1.62054825
H        8.27676582       6.72753143       7.43645573
H        7.61426401       5.96709299       1.62938392
H        0.44818285       4.30893135       9.40655231
H        8.41270351       6.84124708       1.15073478
H        2.57883883       0.70817214       3.44012809
H        7.53162909       3.32557654       7.78488207
H        8.32849121       2.29489517       6.55669069
H        4.54038429       9.36675167       9.15148735
H        5.34962559       6.75450230       4.15703773
H        8.39252472       5.19644451       3.08244491
H        8.53727818       5.45019770       1.30674148
H        4.02426195       6.23055410       3.85838938
H        9.73529816       2.28362203       4.13002110
H        7.34882784       4.61072445       1.06506491
H        6.36345720       5.40730906       1.76514661
H        8.66942501       4.49368000       4.58119249
H        5.33087063       7.23642254       5.45251179
H        9.19087219       8.57059097       5.51871634
H        7.03997469       3.08788848       9.36007118
H        1.61247218       5.12801313       8.07491112
H        0.99584806       7.57237196       1.95146239
H        7.95091009       6.63998795       6.23092318
H        4.79024172       7.15492487       3.16177058
H        8.70122433       0.06614935       5.37118578
H        1.19508100       7.20356989       6.63596344
H        1.10593057       3.03048325       6.71931839
H        4.54066133       7.32225418       4.68533802
H        5.51177835       5.94082308       2.87967944
H        6.64062595       6.03523016       2.45764732
H        3.08058906       7.71773720       5.55104446
H        7.44813967       9.24551201       2.46985912
H        1.66485345       4.11839247       4.37020016
H        8.27151012       1.56119442       9.23925114
H        8.98533726       0.39237070       7.44840717
H        0.40690950       3.86764240       1.70112145
H        6.18667889       8.74636841       2.43462825
H        7.44780922       6.58492231       3.46975970
H        8.60755539       7.34653854       4.42397213
H        9.26008892       3.89811802       8.67765045
H        1.68844795       1.76769996       3.72373605
H        8.24071503       1.80464518       3.64363956
H        0.55227673      -0.33174932       7.62716103
H        1.20817530       0.86844575       3.01845145
H        3.03053617       4.35499573       7.76391172
H        1.90118182       4.77501059       2.72751665
H        2.29048204       8.43916512       2.73449516
H        0.48491409       9.25007629       5.75221586
H        7.63091135       8.15709400       3.78542018
H        0.07713860       1.63844299       5.00424337
H        3.30683947       5.56458521       7.91988707
H        9.02242756       6.02682066       8.21434021
H        2.30823731       7.83042002       4.20747423
H        3.42565203      -0.10175849       8.60174656
H        1.66507173       4.07649231       1.42961717
256
Properties=species:S:1:pos:R:3 pbc="F F F"
H        5.48772860      10.05681229       4.15176249
H       -0.02332804       6.02901363       2.19964480
H        4.31563568       3.21009111       7.82633829
H        4.54960394       5.76653862       6.62882710
H        0.17716701       3.14031243       6.71339941
H        9.09353447       2.32592916       0.86387509
H        1.02487969       2.09703302       0.79580146
H        2.65020275       7.02386665       0.58237910
H        4.50157166       7.04281950       7.29191208
H        5.86833954       7.18011713       5.17830610
H        8.10175133       5.66147423       3.99417233
H        5.35884190       8.33049011       2.78956914
H        7.67954302       8.43967342       0.54622483
H        6.92626953       3.27876496       0.60767823
H        3.25085115       3.73312950       3.81220603
H        0.11484947       4.48600340       6.82379770
H        3.21142507       5.60002375       3.39981651
H        6.15455341       7.33824062       3.04867458
H        2.56250405       0.89943010       1.02969706
H        6.92525482       7.93427944       4.49802256
H        3.60235095       5.83080053       6.13282871
H        2.95614171       2.15178013       8.26502705
H        3.09143400       1.37705719       0.20939554
H        2.66270065       1.09333658       8.82121277
H        3.05785799       2.40453672       5.10237503
H        8.59711361       4.70254660       2.03767180
H        1.21566069       3.24445820       6.80747461
H        1.87469435       2.14093828       7.24892712
H        5.77013159       8.83068275       5.38439608
H        2.20180225       1.65053999       2.50299072
H        0.27351329       1.85670829       8.06159306
H        8.78094482       8.51850510       3.56174994
H        8.76580048       8.04443264       8.69208527
H        4.09841347       2.64327049       3.85598898
H        0.24926858       8.97298145       2.47218704
H        5.31310606       8.13180923       7.24911213
H        2.89571977       8.39447117       5.22885227
H        4.32710361       0.29780370       9.43524933
H        1.49822390       6.41447639       3.33333468
H        0.80211353       6.55423212       6.46242380
H        6.71133232      -0.03156666       1.58475339
H        1.72453344       3.82333970       7.68111706
H        1.69413233       7.14302969       2.27174664
H        2.03891206       2.79282594       4.03163719
H        4.41212988       0.36716232       1.66567218
H        3.37004733       1.02620614       2.45750785
H        0.96784854       5.29392958       3.18323135
H        1.97046864       0.52260482       9.80270195
H        7.27004719       7.29892731       1.61613500
H        2.46084547       8.91849136       8.63265610
H        7.25740623       0.87828046       7.77372980
H        4.82145500       5.48025894       5.36724424
H        7.16199827       8.38615513       5.40488768
H        3.95205760       2.01256180       0.08378471
H        2.89550829       2.36768627       4.04169512
H        7.32091665       5.54378176       5.00745821
H        8.70897388       1.15642941       6.35169077
H        8.27941895       2.14583683       6.05066013
H        9.12859535       4.17372847       8.25644207
H        6.49122715       0.92283481       9.16253185
H        3.83086085       5.32151318       5.29965496
H        5.50784302      -0.06147448       9.65753174
H        6.69624090       2.08436632       7.51717710
H        2.38833332       4.65814447       3.09216714
H        0.81165040       6.71680880       4.06286144
H        4.96293354       7.51524830       6.09003973
H        3.89490032       4.29409170       1.53687596
H        2.01468468       7.52836180       3.24820542
H        3.85408688       2.71334195       6.05946779
H        0.07303765       0.27082735       6.67042828
H        5.59151506       0.45207334       2.05722284
H        8.62615776       4.12520933       1.03221333
H        7.41506577       3.12064385       2.58723736
H        7.85977364       9.39515400       8.49545956
H        8.72197056       2.19363737       8.39984989
H        5.16347075       0.32481092       6.12791061
H        5.96182680       3.14129567       1.60384917
H        4.19635868       8.18887138       2.05295992
H        8.31146812       6.43047333       3.36863422
H        5.73198557       9.07724857       6.64481258
H        3.84184909       4.44938183       3.13394904
H        4.11593390       2.07740784       7.18460369
H        0.22677457       5.76738548       7.68930864
H        1.21151960       7.10705423       1.40914941
H        3.38442087       8.03656006       4.31026030
H        0.72295874       5.02750015       2.00553656
H        4.25453901       5.17932272       8.31742668
H        4.68569660       5.59607887       1.79042435
H        8.11866093       3.98664498       3.95726180
H        5.97275448       7.55818796       9.18873119
H       -0.19801961       5.40988636       0.95601588
H        1.48098493       6.80926037       0.42404670
H        8.42670059       7.22970104       9.50951958
H        1.43511152       3.95995283       4.95881701
H        8.53351307       3.24761772       2.87078309
H        9.29716301       6.69638872       3.19521904
H        2.79641700       8.22181606       1.46844542
H        1.77298081       0.29343858       4.16422033
H        1.74580491       8.90753555       7.46583605
H        8.63662243       4.39998436       3.12383461
H        8.23546791       5.54746199       0.90516114
H        7.97296190       7.29167938       3.98274112
H        2.73050594       9.23835945       0.80855054
H        7.32049656       8.78369331       3.15492249
H        6.64049816       4.14402533       1.49934554
H        1.92250764       4.87191343       0.78051370
H        7.89198542       1.44122529       1.19104338
H        2.03584433       4.90067244       7.45874929
H        0.41353044       3.52463889       2.47538543
H        6.14364052       3.73257208       2.82432127
H        0.84585017       2.36368752       2.37130189
H        3.22470474       3.73993826       6.34629822
H        1.51522171       0.97038126       7.08022976
H        7.98902082       2.25773740       1.77650166
H        0.92387474       5.30206966       6.38957930
H        8.40821934       3.18388009       9.16307831
H        9.44357204      -0.00390567       3.76892114
H        6.32002354       9.01270485       3.01594949
H        2.02325034       0.45938444       3.04673147
H        4.81844807       7.79171467       9.45883751
H        8.34662342       0.53295499       3.89458489
H        0.81236875       0.93925792       8.32724285
H        0.87921619       6.39773226       5.15809774
H        3.72672248       4.95395088       3.94524193
H        3.41492057       3.61641312      -0.03921396
H        3.17449975       9.68953991       9.30272388
H        0.89274764       1.52560675       9.18470860
H        0.06540007       6.60635376       8.84995365
H        6.75627804       9.30838299       8.24958515
H        1.55592525       4.95178127       5.31864452
H        0.91246194       1.01133823       4.30874109
H        0.21093065       3.51498008       1.22671390
H        2.09981537       6.22329903       4.33488798
H        4.44983673       6.74479294       8.95928860
H        8.34813118       5.66783810       7.94097328
H        8.97096729       5.44499540       6.90451193
H        5.19981813       9.12284088       7.59178257
H        7.87668657       1.21998727       8.82938862
H        8.57576656       7.33429384       2.64959550
H        3.58114529       8.14349270       0.25158426
H        7.92002296       2.31795931       9.03018093
H        5.53655386       4.47798252       4.58774281
H        2.84462786       3.95191646       5.30849743
H        2.03332877       2.93516493       2.35396814
H        9.11135101       2.79770088       5.68818808
H        0.60573876       0.92469925       0.72458458
H        9.10218048       7.81622648       4.43021107
H        0.37405702       3.39178300       5.12320232
H        3.96590185       6.17528486       2.90113020
H        4.50385237       0.43714485       3.59167647
H        0.25114825       7.97010994       5.46274424
H        6.09901237       1.61811781       4.51723862
H        4.97322226       3.08053446       5.55727148
H        4.04956913       4.19645977       5.14693213
H        1.82937884       6.15320635       9.24079514
H        5.80637407       7.17673969       0.79125696
H        7.00866365       0.85222793       6.08647871
H        7.77673054       5.95067501       9.33214951
H        4.67630959       2.23820472       8.28546143
H        3.99715972       3.20345354       1.42405140
H        3.68273473       8.99766350       1.04552031
H        0.97473264       8.60174084       9.84436417
H        0.87736517       0.89670318       5.96957684
H        1.02778578       4.64322186       7.47610521
H        0.06901772       4.24105167       4.11396599
H        3.85833359       2.73842931       8.61651993
H        4.85913897       2.28833604       1.18822360
H        1.88508606       0.30041939       6.05005884
H        4.72555876      -0.20506999       2.53070784
H        6.54612398       1.85313463       0.92722559
H        1.53034580       5.29894590       4.00627232
H        3.08603001       0.84063941       7.14985085
H        8.21933460       2.68226433       7.37835503
H        3.16449142       0.93100667       5.22423458
H        6.24631357       8.72887802       7.45035028
H        7.13522100       6.56943941       8.29028225
H       -0.13635932       2.47216749       2.78955436
H        5.86648846       2.12191153       8.55554390
H        9.21854877       6.72526455       4.66205215
H        3.35199523       6.45385695       5.08732510
H        4.65842915       8.64404678       0.87974781
H        9.07497692       7.00136232       0.73178655
H        0.47648185       3.63582373       7.57661438
H        7.33001280       7.37999535       2.98300099
H        4.85570669       8.39715958       4.37768745
H        6.67792702       2.26134348      -0.18623969
H        5.50616264       4.67990112       1.44482791
H        1.50637639       8.76588535       3.53010178
H        3.67008567       4.79293871       0.29533109
H        0.02498937       0.76318371       7.61798048
H        6.72631836       7.92313814       0.41677156
H        6.54169273       1.68943143       5.79401827
H        5.43909168       2.69987178       7.18089867
H        2.47675753       9.69764519       5.10974073
H        6.86500311       9.12796497       4.31276560
H        7.51706123       4.05580759       4.68395329
H        3.67511892       1.66637003       5.72654057
H        8.49243736       1.37316120       7.84814405
H        6.87165451       2.89599133       3.44891644
H        5.28698969       0.18681124       8.66840649
H        9.32483578       6.67431688       6.90034914
H        7.72436666       2.19694209       3.12633920
H        9.48641300       9.25522041       5.57872868
H        8.51607609       5.66798973       1.93663108
H       -0.03895318       5.47699022       9.24143696
H        0.62636858       7.20232296       2.21839857
H        0.82775980       2.50107002       3.45832253
H        7.89140463       4.16105270       7.66875935
H        5.44830036       3.72882652       3.75824690
H        6.25463390       8.83945370       0.53092533
H        7.71472311       7.27906466       5.64628887
H        7.34184170       6.19614935       2.06053519
H        4.90896940       4.25335360       2.56815767
H        4.30475044       8.22619438       5.62944412
H        7.71883440       5.25997639       2.47095799
H        6.26761198       5.58386898       9.20712852
H        5.54467440       1.97960770       0.01858752
H        8.39836788       3.01646018       4.99388361
H        4.30877018       6.61423445       4.02920771
H        7.83056593       8.63734245       4.37560654
H        8.87030220       1.42896020       9.35346413
H        0.74538755       1.58396280       1.83161056
H        2.23349285       8.65172482       2.37688112
H        6.51453400       8.11369228       6.65389776
H        4.06832647       6.39521313       1.31431830
H        1.21687973       0.18577249       5.02741098
H        1.79707944       7.09073162       6.70021534
H        1.05455923       1.73982489       6.67801571
H        3.81334949       7.12687159       5.99664879
H        4.81227446       5.61183310       4.13332939
H        5.43375349       8.38228989       1.39691544
H        4.23998642       7.20968199       3.15515161
H        0.01004151       1.49125516       4.91201115
H        1.94254744       5.66884613       2.56606460
H        8.54762650       8.90364838       1.80869746
H        7.07418251       1.81435156       6.56358910
H        1.07074523       3.38028836       0.52032238
H        9.20003891       7.90082216       1.59125090
H        8.44337749       7.06719637       1.63064718
H        0.63780785       7.72433186       3.08227444
H        1.36936247       6.01562500       1.29357958
H        3.63321042       9.30166817       2.36041641
H        9.27849960       2.89711332       4.38436174
H        7.85660458       7.85694695       7.48056698
H        1.19602978       0.51404321       2.08622408
H        4.43530464       3.92245126       6.50168657
H        1.84156990       2.32048011       3.08943868
H        3.55934978       1.38575721       1.27535272
H        1.14212728       8.58055115       1.59647822
H        8.71776009       0.77103055       2.81718659
H        1.21926522       2.51744604       5.44627905
H        1.84540045       2.30576158       8.49919796
H        1.06277597       4.97380018       8.79558182
H        1.70342028       7.78184366       4.67876911
H        5.20078182       7.26303434       8.41209698
H        0.49961522       6.38504314       1.02967787
256
Properties=species:S:1:pos:R:3 pbc="F F F"
H        6.05408335       1.70180762       6.55747223
H        8.35861301       6.28359079       4.09727097
H        3.87366557       4.47361517       7.43944979
H        2.40837646       4.68168592       7.51395369
H        8.99559784       1.58275795       8.94604683
H        1.44054568       8.56713676       2.38672447
H       -0.62408859       1.06952405       1.47322941
H        3.33723116       7.18127060       6.84933043
H        4.25287151       7.52995968       8.40235615
H        6.12680101       0.54438066       3.55405617
H        7.89865112       3.97204542       2.77790952
H        6.21851587       6.88278341       3.41279292
H        9.32610703       6.95154953       1.54825521
H        8.16771221       1.48182142       7.93693781
H        6.42216778       2.27729321       4.67430401
H        8.75807571       2.75903058       0.32658711
H        5.71366501       3.99474597       2.23749304
H        1.62873363       6.35731554       3.13854527
H        2.15035820       0.13520539       0.75176865
H        5.64972448       2.50714517       3.88345265
H        3.72160172       0.14291202       5.72767019
H        5.08286715       7.97853422       7.99807930
H        3.11673260       1.04010570       0.94625193
H        2.94735312       2.60902643       0.63311869
H        3.09371591       1.86458790       8.15876961
H        0.53318387       6.48205614       0.51426965
H        8.95549583       4.19363451       6.35540962
H        0.88507831       1.49099016       8.34797859
H        6.60652447       2.52224231       6.12834311
H        4.17664289       2.77382302       2.26822090
H        7.67355824       2.09840512       8.85795689
H        6.91497612       8.77608204       3.51462197
H        8.82315445       8.70377731       6.96265888
H        4.65162802       2.27833056       5.34515285
H        7.22425175       0.50450587       1.83245087
H        7.96172333       7.87529135       8.87789154
H        5.08582163       7.75662422       5.36217070
H        7.76427984       8.90612984       8.85503769
H        0.21979018       6.46133757       3.78291345
H        9.76868439       8.57171535       0.36858782
H        7.07185936       8.86692619       2.28342009
H        1.44170952       2.01431465       9.20234776
H        4.47062683       8.98973179       2.04185247
H        0.71179116       4.29770374       5.34406519
H        5.55766010       1.82225096       8.61561584
H        2.99424577       2.67267871       3.53589702
H        1.86955202       2.34630847       2.74019241
H        0.29783171       8.77499008       7.89048386
H        8.47734547       5.93648052       2.34005117
H        2.16663408       1.09940004       0.16798599
H        7.04696178       8.15607738       8.60706806
H        5.61301565       6.32525158       4.72220993
H        5.99033546       8.21116734       2.58034468
H        2.98372912       1.85752630       6.74216795
H        2.08090830       0.11069217       5.31718540
H        8.94737816       4.50497961       2.20863557
H        8.13528061       3.54900408       7.45159054
H        7.18928146       3.33302283       3.38032508
H        8.57873535       5.73037767       6.88777876
H        3.91102290       2.47094393       6.09051514
H        1.76344502       5.49729204       8.30274773
H        6.63278580      -0.04058661       8.46892643
H        7.15113497       3.12452173       9.38914776
H        2.74821734       3.06156731       2.44520736
H        2.47666025       5.95127964       5.91055536
H        5.10992241       3.60015035       7.51414490
H        4.03898668       4.47680378       0.80382198
H        6.81559277       8.34413815       5.83088779
H        2.26119709       2.21135092       4.64561367
H        7.84724855       8.30678272       5.16373396
H        6.57020903       9.44861221       1.34465003
H        9.13067245       7.03021574       0.34045890
H        7.74871731       6.00616407       3.31622553
H        8.64688587       9.41679955       0.10502726
H        8.41380882       1.06959760       0.38898528
H        5.65736198       8.28440189       6.22141314
H        6.59358454       1.33980310       2.93608832
H        5.81396151       8.56531811       8.48034477
H        7.27906322       5.11722660       5.10688210
H        5.28796816       4.46524382       6.12976837
H        3.26721883       4.02499485       5.20224524
H        2.53498149       2.21369767       9.07576084
H        8.48623657       6.84057474       5.58234501
H        0.63779187       6.99974966       2.15497708
H        2.81039047       6.42036438       3.52994680
H        3.69893813       4.60208130       1.96913981
H        5.13268995       4.15894699       8.51906204
H        2.95013547       1.62803555       4.22635889
H        8.48763561       4.96796036       4.19973135
H        5.70861006       0.70185637       8.72396183
H        6.77000427       6.38902712      -0.02246089
H        2.11798525       8.56546211       7.55556822
H        7.37303782       3.54070401       8.21256065
H        9.40308571       5.44920826       3.52182579
H        7.52204609       2.64002395       5.20603561
H        0.84047490       7.37063169       4.75804758
H        4.06393147       6.50043392       3.75753880
H        3.90347552       1.90314972       4.57334661
H        4.52476263       1.53232145       6.38729382
H        0.86917818       4.44159746       1.85462451
H        7.66476059       2.37193298       0.38454077
H        7.33356428       6.49589109       4.38316584
H        4.24498034       8.01636219      -0.28369451
H        7.40089035       7.84039974       3.98154068
H        6.72601986       3.06099653       1.09121168
H        2.70676470       6.47475004       0.78704929
H        6.62899923       4.37097883       2.51902890
H        2.90811467       6.13254833       7.69816017
H        0.90353221       1.11316609       2.14737391
H        1.78883016       5.04313517       3.09056830
H        1.08420134       1.27993476       4.04238272
H        2.88434124       2.68463659       7.50240755
H        4.72156334       7.22752142       6.95263100
H        7.40064764       3.00874209       1.94287860
H        0.55977380       4.36674547       6.53667212
H        0.71140516       2.14358664       1.69232094
H        2.26124740       1.28947866       2.91422176
H        6.25423813       0.91668719       1.81681967
H        3.53513455       9.50917816       1.19900668
H        3.83250380       8.58145714       8.33359146
H        8.62670326       8.88571644       4.16049480
H        2.10498238       0.20005238       7.25246620
H        2.26139283       4.22371244       6.43151951
H        1.57495654       3.46061993       6.32763863
H        4.69226074       7.00972080       9.84860802
H        3.58760381       0.18782359       8.53912830
H        8.42246628       0.18262380       8.37634659
H        8.67302036       3.26796174       8.49600887
H        7.31204367       9.40010834       7.61595631
H        9.31803131       6.86233187       4.68813801
H        9.11864567       2.01208377       3.60617566
H        9.40748310       5.67609501       2.45871282
H        3.18922520       6.49793053       2.49604464
H        4.77137613       4.53523111       1.64722753
H        9.44195080       4.76109028       7.99535465
H        7.79499817       1.74468625       6.21737099
H        6.22055149       7.71839762       7.89977741
H        8.60823727       0.87597233       6.90727568
H        7.20226288       7.81338024       2.91547370
H        3.30392194       1.91057348       5.33805275
H        6.04586267       4.06871414       8.05320263
H        7.96205711       5.29754400       6.18418980
H        1.05992377       1.70361614       6.84462690
H        3.84568214       1.69227362       1.64340818
H        0.78846556       2.48741245       3.81270742
H        1.44731593       8.77059650       0.94919592
H        0.36280033       8.40109730       4.66754484
H        0.25418139       3.32824016       4.75020838
H        4.42070818       3.84960794       2.27314305
H        6.21467161       2.91001821       7.11190557
H        4.06261063       7.48153639       5.22132397
H        8.14902115       1.62301159       5.14339685
H        4.89839554       3.87386417       4.52809668
H        6.03307629       3.99807978       3.67099452
H        4.92268944       5.89436769       6.36756802
H        6.83199406       5.32952976       0.94956177
H        6.51694012       7.14271402       6.25005436
H        7.57586718       6.61791563       1.25269830
H        5.36621094       3.61844492       1.24271619
H        6.72458553       4.24109507       1.14462411
H        4.25599289       8.88345146       0.17910600
H        9.54855442       0.61334038       6.28163671
H        4.39379358       0.73732090       7.42092800
H        0.94249594       5.44245195       8.97154903
H        8.49746132       7.62212753       4.57791710
H        4.15643358       3.31607461       7.18635654
H        6.25815868       1.25384367       0.72556257
H        1.77821660       2.26924896       8.17208672
H        4.80779028       0.18158202      -0.43423945
H        8.95013046       9.37279606       1.90545380
H        0.53049487       4.56249094       4.02821255
H        2.21771622       1.25619459       8.49093723
H        6.40070677       1.68480086       9.18465805
H        5.42091417       1.44864202       2.65185833
H        8.07426929       8.51377296       7.92046356
H        7.29903364       4.19310617       7.18835878
H        0.86093456       1.62143636       3.09495592
H        6.07306433       5.57255983       9.29071522
H        3.30205941       7.88041258       3.66551757
H        5.94038439       8.27372074       4.09724188
H        7.70718193       8.67685223       0.59526962
H        8.68392754       6.71666670       8.94281292
H        0.04518459       2.63885379       8.62861729
H        4.38387632       4.95192385       4.22844648
H        5.49204302       6.16894770       2.88013244
H        9.19523048       2.32427168       1.62334263
H        7.56606817       4.91605520       2.06371546
H        4.30536747       1.02199006       4.76978970
H        4.70547676       5.13844299       8.34177113
H        1.02415895       8.10524178       5.63003349
H        5.87691545       7.12567234       8.97326374
H        7.26817703       0.72349793       3.73708701
H        3.26771545       3.10595846       4.75107908
H        2.86515284       0.66204059       2.34672165
H        6.25055504       9.67096138       5.44685364
H        5.98061800       3.93536210       5.12699795
H        5.76465940       0.18876252       6.45635748
H        7.03706026       2.72144628       7.56862497
H        4.48010063       1.98857737       3.60906625
H        6.03213453       2.42375970       0.48012489
H        0.83363450       0.45505670       7.44386721
H        4.81938171       3.12280512       3.55226398
H        0.63314801       8.45682335       3.39559174
H        6.72394657       5.27039099       4.06334829
H        0.31858572       4.10692883       8.99279976
H        9.36838245       7.78569508       3.78511214
H        1.54634404       3.42532730       1.81990945
H        8.12379456       3.05221653       6.09359980
H        3.31373191       4.20884323       3.20030093
H        9.25671768       8.14983273       1.98702657
H        8.51019669       7.51432371       6.89691973
H        6.83318615       5.98832941       2.94206619
H        5.81818199       5.05919075       2.88774419
H        7.04793262       1.62269247       4.25731087
H        7.60527468       5.76169205       0.33733633
H        6.41436100       4.40617180       9.25444984
H        6.08321762       1.58421826       7.73744965
H        6.78757668       3.89260268       6.29422426
H        0.55342609       4.17509508       3.03616428
H        7.59653330       0.59714502       4.98467016
H        1.88837278       9.34303951       3.11459398
H        3.73978233       0.87350065       3.80213261
H        2.44322610      -0.13537878       8.63109016
H        6.42448425       8.73454285       6.82668257
H        5.89324951       4.86173868       0.52796406
H        3.19742298       8.87487316       3.16279936
H        2.52728295       7.00693846       8.09607220
H        9.31096935       1.17442393       4.72380543
H        4.68020010       9.18459892       5.17012262
H        0.85312521       5.69513273       4.36813211
H        6.38644075       7.14235306       2.14095592
H        4.50974607       5.63145494       0.84172201
H        7.96235704       1.77479279       3.32465816
H        4.17744446       6.81371832       1.44973457
H        7.84149313       9.50946522       3.29043674
H        6.07986689       4.64274836       6.83232403
H        2.07668161       1.61538720       1.90856230
H        8.62720966       5.38641453       1.32639861
H        8.40350151       6.86847401       3.02264762
H        1.65767634       8.38773537       4.08146143
H        9.26861477       7.78256607       8.45816135
H        4.39799309       7.29945087       2.69529748
H        8.53687763       3.88662672       4.99277163
H        0.44617638       8.31632519       6.67511940
H        1.75045788       0.56098956       1.89889693
H        5.40225410       4.83430052       4.74160099
H        1.36299849       3.32296109       3.37402272
H        4.39169121       2.25005484       7.38649559
H        1.39805686       7.26744413       3.10470080
H        8.74487686       1.04840982       3.60834932
H        0.52141929       3.41802692       8.19763088
H        9.45299816       0.87389076       7.91677856
H        1.59239948       8.10095406       8.77175617
H        4.16260862       8.44993687       7.28099871
H        4.86119223       5.63962746       5.00480938
H        6.19504118       7.75522852       0.35661304
256
Properties=species:S:1:pos:R:3 pbc="F F F"
H        4.16172934       0.33622095       7.76392937
H        0.16829704       6.62105036       5.25062656
H        3.86604238       5.90976715       5.73715210
H        3.84221244       5.64351511       0.35193849
H        9.45300579       8.53401375       0.74836791
H        5.90085459       8.00324726       5.81092024
H        1.11101413       7.14576960       8.83948231
H        2.00681376       8.05747986       7.78639126
H        2.60275126       6.31783390       9.09690285
H        3.38403511       0.89045697       1.90342915
H        7.41508818       5.37994003       8.99312401
H        9.53110218       9.70863724       4.56125402
H        2.79377723       6.54851866       3.34374642
H        1.06220913       9.23542213       6.46401262
H        6.56973505       1.63473141       3.65060759
H        7.46594763       0.42322522       0.75411135
H        5.31364679       4.64158010       2.13273239
H        1.16524959       7.51351833       3.90212512
H        2.42342710       8.63897610       0.19714962
H        4.64395142       3.63557744       4.77230740
H        5.18851042       0.74855995       6.52350187
H        5.10922384       6.00889397       7.96909618
H        1.92174387       2.32403016       8.70059681
H        2.98072028       2.90773511       2.02242827
H        2.31255484       1.61215341       7.82115793
H        9.14843750       8.22438622       2.40882254
H        6.34278917       4.42960167       6.94071007
H       -0.24878947       7.51932335       8.06536865
H        7.86867142       3.95619917       0.25162974
H        5.31054258       0.97633702       3.22944260
H        7.28965235       2.02395773       6.10544729
H        6.75750732       0.62947959       4.12224293
H        1.29705644       9.08028412       4.48148012
H        6.20535803       3.12402821       6.58445644
H        7.64535856       1.32642770       4.84994555
H        8.50981617       8.39589310       8.16181946
H        4.54141712       5.55784941       4.74987411
H        0.35887581       7.63469934       0.27841616
H        8.55554867       8.06027889       3.27398729
H        3.66592073       7.29869747       9.33843422
H        6.60785198       7.71356010       2.58369827
H        1.98461747       3.68508577       8.39139175
H        6.08181667       9.41255760       4.51551628
H        3.24794984       4.57747698       6.22804499
H        6.38094378       2.42028713       9.71829319
H        2.60102463       1.66314793       6.62442827
H        2.22385001       4.90410566       2.37289834
H        0.82352298       8.11529064       7.69855309
H        0.97400528       5.49500132       2.61242700
H        2.98147821       0.46204582       0.86612052
H        7.71374846       8.87842941       8.91891956
H        6.55200577       7.16034126       4.11760902
H        3.90591216       0.74245483       3.48820901
H       -0.29853457       3.82144785       7.65759706
H        3.19109583       8.90858555       3.71841621
H        9.38941383       4.05356979       1.98572803
H        5.41697550       5.40676641       4.18703127
H        6.27684736       3.73722005       2.33082151
H        9.20495224       6.62940693       9.61054039
H        4.97377777       1.78370655       3.84028697
H        2.97593021       5.47478247       8.69158173
H        7.09410524       6.90447998      -0.12678987
H        9.19904900       5.45162535       7.82711124
H        2.96729684       3.48239470       8.76541710
H       -0.41612804       6.56734800       8.42333794
H        9.00479889       1.27354479       7.43710136
H        7.22086477       5.37931013       0.80731434
H        8.16458130       7.44643354       4.67726898
H        3.58809543       3.46052480       4.65586424
H        7.96922636       6.94158745       3.77867270
H        4.89639521       7.68678999       8.83255482
H        6.04815388       1.10062444       0.79225421
H        7.06000710       6.54174042       1.63681936
H        1.57684052       1.80150509       1.63686883
H        8.37639046       1.96666265       9.18651390
H        6.29912519       9.12069702       8.21490288
H        2.31763506       4.07221889       0.25364104
H        6.18007660       8.92847729       9.20376110
H        5.96609259       6.28523397       4.03557301
H        7.39691353       5.82694292       2.31484437
H        4.33864927       4.69646025       5.79499149
H        3.04141259       2.07689786       8.37337494
H        8.79511547       6.40859556       4.23649836
H        7.81756496       8.18801498       2.28787994
H        0.53297448       4.94720840       5.40986729
H        3.75039935       5.31924725       1.53268945
H        4.09772635       3.59833598       7.82203293
H        3.37156725       8.95549679       5.24124050
H        9.10558510       3.47288680       5.36157370
H        7.20183802       1.14547014       8.41790581
H        5.80759478       6.49849749       1.63142896
H        8.85987759       0.50929224       8.40813923
H        7.57840204       1.07131827       7.21976805
H        0.71885842       6.33993959       3.79734445
H        7.26290321       4.64732313       4.79726219
H        1.96353495       6.13473177       5.37035751
H        2.93396330       2.03701806       4.51369381
H        4.03967953       2.58405399       8.28813362
H        5.51270723       1.73661447       6.74060440
H        1.68929207       5.30056572       3.32732201
H        8.69642353       0.62997448       1.11138701
H        5.43520498       5.27967167       6.75433445
H        3.09499955       0.81724507       7.71521235
H        5.15182400       6.99591827       4.07059669
H        7.19803715       4.07865620       1.66436160
H        5.26236343       8.61552811       8.57679462
H        6.59694529       4.74052811       2.17555261
H        3.52547359       4.77402210       7.21856880
H        1.10855591       0.47987866       1.66542101
H        3.28463221       4.45201063       0.15780292
H        0.00704344       0.00243879       7.03562450
H        1.28459883       1.21112287       8.17066002
H        2.80482864       5.53382587       6.44662666
H        9.07137585       4.26033306       0.94365621
H        8.47645855       0.55657834       6.96086073
H        1.63116789      -0.05935395       0.62280673
H        1.11794960       5.55181885       6.41886330
H        8.41206551       2.75223970       1.33590162
H        4.19074821       2.37996078       5.37157297
H        2.09194541       9.30720711       8.76179409
H        7.21930552       7.87989664       6.45395660
H        5.24761820       6.98826981       5.44549322
H        2.53972149       4.66875744       3.66509438
H        7.63223553       2.73780298       3.20632315
H        4.64401388       8.46912098       0.27593103
H        5.02544022       7.35169315       7.67926121
H        0.16640030       8.32245064       6.54366922
H        9.01796627       3.22225118       8.40758324
H        7.24624777       9.09451294       4.96362591
H        9.24272823       5.84498739       6.54040194
H        8.55445957       0.17420904       5.81104279
H        3.00883245       7.11306238       0.72658271
H        3.75216961       2.83226609       2.73021126
H        3.78315568       4.37962770       3.77420855
H        8.77662086       7.41888952       0.98098105
H        6.22535324       1.97480154       5.94106865
H        6.35714674       6.31335497       6.60892916
H        1.32616854       7.97575855       4.72543955
H        7.79760695       0.28241047       2.32530117
H        3.40393114       0.33397797       6.67612934
H        6.67714930       2.67710519       8.45473003
H        8.40811634       5.37516880       5.43774414
H        8.51585960       9.41774845       7.64972734
H        7.59362459       4.10314989       6.73536873
H        1.90518475       2.16294408       4.61112261
H        4.61908674       7.51781178       2.96445632
H        0.68594623       8.35026646       3.29659510
H        2.08985329       6.94327831       8.01586151
H        4.46866226       1.82801986       2.25198674
H        4.84682083       3.66795301       6.77874374
H        4.84593153       6.00564528       3.62573981
H        9.81091404       2.87488651       4.36922312
H        4.08582258       3.01910067       6.20312214
H        6.01200104       4.03148460       4.67084932
H        2.36740756       3.52066946       4.12724495
H        7.03641796       3.83899331       7.81247616
H        7.75570726       6.19110775       4.80188799
H        7.43873310       7.50009489       1.45469081
H        5.57719851       3.85905337       1.19486940
H        8.24639034       6.56254387       0.52948606
H        3.32102990       1.72933388       0.65866703
H        2.12832808      -0.08417430       3.23663020
H        5.33839941       8.51579189       7.56166649
H        1.61133611       5.99958372       1.78352940
H        7.98068380       0.15132572       3.42371297
H        5.14968824       2.48360467       8.61330605
H        8.45696735       8.87880039       1.52911520
H        1.78416991       2.59683371       7.55482721
H        4.76961756       3.06580210       0.93308651
H        9.35574722       5.70142651       1.86259615
H        8.66394711       4.06188011       4.29648113
H        3.51253438       7.87108850       7.41840792
H        6.46996546       4.05062103       8.91079521
H        5.16967106       3.30498385       2.20362496
H        8.75221443       8.51943874       5.88648558
H        7.83686352       5.12649441       8.00025368
H        0.84241867       0.98868471       4.71968985
H        5.84232616       5.48333931       9.18194866
H        4.63657188       6.41112995       2.22775555
H        3.33173966       5.39284134       3.35270286
H        8.61803722       9.08899212       2.78422475
H        6.76134491       5.42188692       6.90154600
H        0.26676941       0.84809178       8.05968666
H        2.19235158       2.84993863       6.19370937
H        5.75988388       5.70732641       2.26286316
H        0.17759883       3.44204664       0.22821559
H        8.20823288       5.10213327       4.45497608
H        1.70425963       8.44009590       5.61285400
H        3.83439636       6.24574232       8.58495712
H        3.48401856       7.48928928       6.15197611
H        6.13576937       8.09244061       8.47445393
H        8.73384285       2.05567813       3.48330927
H        9.22161007       4.73256302       2.99860048
H        2.78876734       4.51992369       1.20730102
H        6.02463722       1.20628214       4.59193230
H        5.59797859       2.36376548       4.56828022
H        6.55135202       1.25707960       7.34713554
H        7.76631784       2.38289475       5.14839315
H        5.55926561       3.10291433       5.64466190
H        3.80373478       3.81691718       1.46424258
H        9.81124401       8.70830059       8.58072853
H        1.82622957       6.40652800       0.69770533
H        0.49014246       9.23263168       2.37648082
H        6.52842093       3.21553087       3.27578616
H        8.21718693       6.61484146       1.55758405
H        9.90527153       8.09188271       4.30013132
H        0.10563774       1.96426189       7.96995544
H        8.64792347       1.35815811       5.04114008
H        1.49297822       7.15725946       1.31715047
H        2.45176601       7.43043041       4.52537107
H        7.80627918       7.27665186       5.83295202
H        6.23507833       6.38855648       3.06152368
H        2.77500772       1.41879559       5.66857195
H        8.03679943       4.08848143       3.00866938
H       -0.09642904       5.03407860       4.53902531
H        5.52404451       3.33016372       8.05356979
H        7.49375916       6.79665041       7.52660894
H        7.22536564       3.03893161       4.14513397
H        0.90034455       4.68202305       3.93575191
H        8.73628044       8.66087151       4.68555117
H        4.58522320       7.67186165       5.12071180
H        6.93613768       7.71080160       5.01104927
H        1.01528013       3.07640624       8.88532257
H        4.46153355       9.21411705       6.14749384
H        6.01952124       4.79991055       8.01409435
H        4.00469398       9.40054131       1.40451944
H        2.22833824       7.30420399       8.99470520
H        2.71713209       0.84682494       4.73486185
H        5.93923616       2.62820220       2.44568062
H        0.07221813       8.89973640       5.30278587
H        6.38089895       8.41216087       4.35119057
H        4.27770948       4.64365768       0.61465228
H        0.99995464       0.60311139       3.24838495
H        4.98325109       4.26899862       8.54143429
H        0.19260080       2.04213142       3.04205465
H        5.11093616       5.34081364       5.66673326
H        4.77285194       0.52479357       4.13487911
H        1.58855736       6.40494251       2.96969867
H        0.53442377       8.03822994       5.51035929
H        3.24144769       6.72832823       6.92359304
H        5.96035957       6.83161688       7.87784338
H        4.51359749       4.94354534       2.72905302
H        2.98192310       7.70482969       8.23886395
H        3.33275628       7.78213358       5.14481354
H        1.07083309       2.19582844       0.50350606
H        5.90375423       4.95991468       3.24188161
H        2.18198848      -0.04814063       5.85705566
H        2.93516755       2.67440176       7.52758932
H        3.26073170       6.07251740       4.30644798
H        8.58621025       1.66257977       1.03216398
H        7.04971027       3.77850556       5.34516096
H        0.56227517       0.32941866       0.04212704
H        3.19352269       8.62792778       8.12613010
H        2.22457170       9.18553162       6.93618917
H        1.45763493       5.50509501       4.49680948
H        5.09913015      -0.33556199       1.02861667
256
Properties=species:S:1:pos:R:3 pbc="F F F"
H        4.80196476       2.28678584       7.49280930
H        0.33802712       8.57685661       3.76659417
H        3.63184643       7.73612595       6.73996019
H        4.34136963       5.22235584       0.53022385
H        4.86649323       7.40501451       1.30831289
H        6.41278887       7.11439133       5.38139772
H        9.89226055       5.09451389       1.10149634
H        2.89933920       7.08761406       8.99733353
H        0.88297403       5.63668585       8.24446106
H        2.21304464       2.20344090       5.78952599
H        5.94108105       4.56593800       0.94767743
H        7.25787067       0.48830760       3.98433518
H        4.30906248       5.73722029       3.56418443
H        1.23550236       1.49405241       7.18091059
H        8.12877369       2.05801272       2.40772748
H        9.44030380       2.48166728       0.92377955
H        5.40682459       5.13714552       2.00992823
H        3.36090755       6.60167789       3.55283737
H        2.34126592       2.04839206       7.46510363
H        4.89872694       1.74479139       3.90114737
H        4.89282656       8.10384369       7.95891285
H        4.18331289       2.74350452       0.00696457
H        1.56318104       4.81981468       7.13386345
H       -0.11455525       4.53846788       2.42246199
H        3.21070433       9.61036396       8.37660408
H        9.97100067       1.68383753       1.54167259
H        7.14868546       1.83762610       0.00924796
H        0.32389578       8.23630714       9.73144627
H        6.38000774       5.54263163       1.31000507
H        4.51144648       8.59965229       3.32956672
H        7.92645359       1.71904242       5.60555792
H        5.44563484       3.08724451       5.34414625
H        1.72869635       8.62347126       4.05369377
H        5.50837183       2.93715167       6.65011787
H        6.43792248       2.81219840       4.27474785
H        9.56120682       5.37619972       3.04986501
H        3.01029778       4.12092400       3.50543642
H        9.57871056       6.23332214       8.30031872
H        5.91672182       1.27186322       4.05909634
H        8.63593769       9.14959049       1.64186883
H        9.17601395       5.47103739       1.99566507
H        1.54102361       5.92902279       5.09450912
H        7.56848526       0.90917075       4.93590260
H        2.31697202       1.03061271       6.43632364
H        6.03073645       1.82938612       8.50107574
H        0.83590293      -0.29801637       7.04502678
H        1.55304599       3.57014847       2.63228345
H        4.11745787       8.34913158       8.58484840
H        1.11399972       4.63347149       1.94717205
H        1.35660791       0.88697159       0.37148258
H        5.96268940       6.92963743       8.87570572
H        5.91880322       8.91098022       5.94793034
H        3.25764942       1.94717836       5.17197084
H        0.72950429       5.38921213       4.38095474
H        6.31409931       8.97593212       2.57490325
H        0.20892018       2.47294688       2.96901774
H        3.53563452       5.30895567       4.27796888
H        5.70444155       3.72882247       1.48224902
H        7.25101137       6.61392832       4.30173683
H        3.62736392       2.24966049       3.87417555
H        4.54038048       6.95587683       7.82806730
H        1.15870309       6.32183886       6.78000402
H        1.94410169       5.28578711       1.25185752
H        3.30356503       4.34907770       2.29544926
H        9.29023647       6.79365349       1.46392274
H        5.48551321       9.12233353       7.72122240
H        7.87459850       7.11572027       8.12790298
H        7.80736208       6.36726236       5.35362005
H        5.05084753       3.55037165       4.32682276
H        9.11658001       5.19653082       4.06839705
H        5.33096218       7.25551510       6.64479399
H        5.28685141       0.99535102       2.17211056
H        5.53662157       5.92160130       8.30962849
H        1.39159572       2.14823198       8.09187317
H        7.95407629       2.43562245       9.17079735
H        4.76091003       8.54453659       5.18636560
H        2.06677437       4.15719223       6.35675097
H        6.11824751       7.57776976       0.34856772
H        3.67915726       9.01770973       2.68427944
H        0.80322796       6.30010653       1.60546684
H        3.60005736       2.33688402       7.35477161
H        1.39632547       0.77131230       8.51983166
H        8.80426788       8.15854549       2.65701890
H        1.77103734       9.40352917       1.00216162
H        8.06765366       4.59251881       4.58584499
H        3.61398864       4.02528381      -0.44548827
H        2.92688060       3.18215871       8.65169716
H        2.98697853       8.54894638       6.26826715
H        0.78197348       4.45839453       3.06075525
H        8.43308926       2.11599731       7.83528471
H        4.60731840       6.52169180       0.29691866
H        7.27443266       2.35000062       1.12911785
H        6.84878397       1.78810453       5.16705275
H        2.83567333       8.14277172       4.64023304
H        7.26655340       4.27087164       3.86027622
H        4.40174150       7.31123400       4.35781908
H        0.48682874       0.69851696       3.10529423
H        3.30806446       3.21564078       2.25278091
H        6.54671335       2.75790930       7.11888695
H        4.72119951       4.31922770       2.25905681
H        2.14870381       0.93057913       2.75001216
H        5.19651508       5.09175158       7.59602737
H        3.68179083       9.27389526       7.48011398
H        3.98779845       7.74229956       5.59654236
H        7.64798594       4.54908752       0.98852432
H        5.69838190       2.64387417       7.96889734
H        8.15707493       4.54696798       2.44890404
H        3.32694769       0.70747745       6.42180395
H        2.38246083       0.89851904       1.08862925
H        4.59662533       6.34373426       6.77739286
H        5.90555763       7.67715883       8.03007889
H        8.31753540       1.51749349       8.89936447
H        3.32304883       5.03346205       7.73954964
H        9.37955761       4.99220848       8.12213516
H        9.06276035       2.30008984       5.01373768
H        2.53588676       8.58295822       1.38651073
H        0.54735196       5.19491386       6.87028170
H        9.20867157       2.26359177       9.29475975
H        3.95479512       3.64086676       4.15310097
H        2.51427650       2.04590750       8.54006958
H        9.28933239       9.42434597       6.93998671
H        6.37556887       8.36182785       4.11827087
H       -0.16259068       2.56599355       6.27833891
H        8.64290619       3.02379155       0.24544121
H        4.41214228       0.40205505       1.92060900
H        5.03544569       5.07073021       6.19728756
H        7.92009878       0.50493217       6.68314791
H        7.67695761       5.93697405       0.13608791
H        8.55021095       9.75413227       5.01637125
H        1.29906976       7.45994329       5.16093016
H        1.48428988       9.17137814       6.26091290
H        6.52157545       7.65675783       1.44616115
H        4.42648506       0.50758481       4.09746504
H        4.10451794       3.61033058       1.33906078
H        0.13912745       7.28954220       9.16472149
H        4.77258444       0.10057358       5.45531702
H        5.91203547       8.08910084       5.11365461
H        0.65315008       7.26792812       4.02170944
H        1.17239606       1.80444336       2.32779527
H        5.23008680       9.02941418       9.10621643
H        6.66564846       4.13613987       1.69473648
H        8.56858921       5.90165281       6.03721189
H        2.76493502       0.60038686      -0.08087077
H        2.08962679       5.90130186       7.54745436
H        8.85417461       1.88048017       3.19684935
H        7.07562637       6.95440149       8.91470623
H        8.92115784       0.81183654       2.42255259
H        3.47286463       6.11579466       2.45126247
H        5.38270855       2.11917281       2.67986178
H        6.87660694       3.49218082       5.71062040
H        4.35066938       5.43952608       2.09447241
H        6.55676937       2.52798653       2.47270107
H        3.66231465       2.52774596       5.86021900
H        7.67182350       2.77243972       7.40339279
H        2.46410728       0.85939008       5.39959955
H        8.27040577       4.95888710       6.75966835
H        9.32123375       7.91778135       4.55826569
H        8.49661255       5.65340328       7.97497272
H        5.09443474       3.08370709       0.58779818
H        6.13438559       5.38713026       0.11098959
H        2.50183654       3.21463180       1.47132707
H        3.00795722       7.31180716       2.38474417
H        0.49909714       6.46725607       5.73334980
H        3.30287337       0.51349974       0.93702948
H        5.67055178       2.21058893       4.71446228
H        4.20958424       4.49490881       7.65532017
H        2.42971182       2.51773024       3.70613694
H        4.36910343       9.04515266       6.47459221
H        5.60617685       4.03212166      -0.04779980
H        1.11460316       2.69220877       0.78263581
H        6.29699850       3.76233077       4.96152258
H        5.01403618       7.33025169       5.31520748
H        8.19724846       3.70695949       9.06196213
H        6.18050146       0.08414075       1.66775215
H        7.50749540       5.47933245       6.23357773
H        7.04870701       3.82538700       8.55524063
H       -0.04043901       8.16628170       6.52258444
H        6.69867134       4.29241371       0.21609604
H        4.05478907       6.94715738       2.63191915
H        3.33401895       5.07616043       5.58164406
H        0.22146247       0.68449849       4.40834379
H        4.02210808       3.84412074       5.89208031
H        6.67918730       7.74776840       6.60106802
H        4.00520849       9.36864853       4.54588461
H        5.73482990       6.71126699       2.45936823
H        2.29700351       2.41596055       2.37597203
H        7.64777184       7.19954538       6.13460207
H        9.20455551       8.95862865       4.51993608
H        6.87910652       6.47893333       1.19655240
H        3.37880588      -0.03926649       3.65114880
H        8.05909920       6.43259573       7.07915545
H        8.22520351       2.74765849       6.43690920
H        0.62851328       4.64385653       0.12408072
H        2.16583061       5.23732519       8.27144051
H        6.93632889       0.59673887       5.98405075
H        4.48404646       2.30291963       5.24955177
H        5.95557499       2.26119542       1.04159343
H        9.27951622       3.93665743       6.69799328
H        6.95930624       2.39634371       6.05577374
H        4.56479883       3.01162267       2.89997292
H        8.66419506       0.44683450       7.65879345
H        1.03156793       8.07719326       8.79507732
H        1.13717651       9.32102680       4.63633490
H        4.73223829       5.08252096       3.05224442
H        9.21361351       6.15611315       5.02073574
H        8.77052593       0.59228325       3.71306109
H        9.54453754       6.92224216       2.56504202
H        0.93554848       0.67353606       6.47655296
H        1.20914721       6.68140221       2.60557318
H        1.29165757       4.81934261       5.28431416
H        5.86799049       4.34597874       6.69953012
H        9.58058453       2.98342371       3.98762345
H        2.64987111       0.71792746       7.69118929
H        8.51863480       4.20006704       0.60632855
H        1.01591432       7.87293625       3.05244899
H        4.60473680       3.33095503       7.69342136
H        2.45713019       3.05883408       9.67666054
H        7.05799484       3.66919470       2.92501307
H        0.21981129       5.27178144       5.51868820
H        8.22017288       6.66670275       3.12634516
H        7.69728804       8.11687374       6.66990614
H        8.29059029       7.95650005       5.53849936
H        9.11917019       3.55245709       8.41454792
H        1.71234989       9.36677265       3.00340366
H        5.62466669       5.96762514       7.12748480
H        2.76194286       8.69785976       3.23851275
H        2.36393166       5.62748480       2.58677816
H        2.10822392       7.91207409       2.63943076
H        5.08927870       2.58469462       1.55873275
H        1.06933761       1.20899582       5.53157425
H        7.27808475       7.39257050       5.01278448
H        4.42996359       6.32517338       1.47735679
H        0.64427489       1.76016057       3.68265033
H        5.31454945       3.25310326       8.74838924
H        7.17525530       5.49260807       4.61056042
H        5.39256668       4.17612171       3.25215459
H        5.08884001       0.14016032       2.85826731
H        0.45231488       9.01351452       1.25798059
H        2.51782727       8.84818363       7.31733990
H        2.75560975       3.90774965       5.38557816
H        6.59491205       6.22761440       6.29990721
H        6.48296595       5.23066235       2.44662833
H        4.73969221       7.78067827       0.26358128
H        3.98355818       8.24610710       4.20175982
H        1.60378718       3.00191665       5.69661427
H        6.38094759       5.94688463       4.13764906
H        1.90385580       0.25645134       7.04218483
H        2.46459913      -0.19599938       4.05247498
H        5.41783142       5.07420921       4.29382849
H        7.73874140       1.03427434       1.23773074
H        7.00094938       1.18578959       1.84830701
H        7.97998333       8.52033234       7.70752811
H        5.65375328       6.33166170       4.81857300
H        0.97920334       7.95715046       1.42093849
H        2.55464768       7.32838869       5.26323986
H        7.36287165       8.81279659       1.98469734
256
Properties=species:S:1:pos:R:3 pbc="F F F"
H        5.94336939      -0.04756308       7.28694868
H        0.64961135       5.86142731       3.32506847
H        2.11750436       8.26755714       6.49505949
H        4.44746637       3.10637045       0.35556901
H        3.59251618       6.85580397       8.03028679
H        7.31194735       8.59765911       5.61115217
H       -0.24166232       6.46958303       0.81069142
H        2.24958348       4.88025093       1.89895546
H        6.00746107       5.34400940       6.61479473
H        2.81526542       1.86899447       6.51795006
H        4.80650139       4.11576557       2.47297001
H        6.50963783       9.21046734       2.60741711
H        0.88258094       3.80826497       6.13398027
H        0.71808642       0.24116942       6.44474125
H        6.51995087       3.46970320       0.26742643
H        8.40541363       2.60334063       3.66361070
H        5.65519810       4.66913414       3.01901865
H        8.66217327       6.75547409       8.28649616
H        4.78178024      -0.16796190       7.50646639
H        2.63858390       1.62036455       5.22884607
H        6.31981945       9.45963383       8.43234634
H        6.52903748       4.45522022       0.53592205
H        2.38304377       7.24726486       4.00382328
H        0.52338690       0.39945427       2.18697333
H        2.21060634       9.49817562       7.90114975
H        8.80467606       9.00562191       2.53079534
H        6.65456486       2.88973618       8.86217880
H        2.90541291       8.09673786       3.46434164
H        4.89678049       6.13981247       2.74412537
H        4.07555866       0.68514287       4.87453461
H        9.07253742       2.39967608       5.70692444
H        5.64601851       4.31041813       5.74171066
H        2.81880212       8.74085617       4.59700727
H        4.18893766       1.32278502       6.23279810
H        6.29169083       1.16500211       3.27832413
H        1.73309088       3.75216293       4.37281990
H        8.05673218       2.95285106       2.34519839
H        8.75652218       8.04035282       6.93354654
H        8.30543613       1.19964743       7.07790852
H        6.53423834       7.66597986       3.05670094
H        1.13706601       8.19721031       2.68748689
H        3.24135327       3.82684541       3.22555685
H        7.15680885       2.78524232       3.17182851
H        1.96511173       8.28162956       5.15349483
H        4.82085466       4.42469072       4.97723341
H        0.43780592       4.27974510       8.87199593
H        1.63370228       2.54976058       3.39065957
H        5.97662067       8.08433151       0.51132816
H       -0.00352141       5.21844912       2.83343697
H        5.61800098       0.91085875      -0.18734722
H        4.37241364       5.22943497       1.07994223
H        8.75632668       1.67473304       1.82394803
H        3.83217621       8.30977345       4.36793661
H        0.44503638       5.09548378       4.65933895
H        7.86517382       8.21561432       2.84447265
H        1.11031258       1.79525959       3.97237086
H        1.42241132       2.75233865       6.50881100
H        5.13761282       4.36040831       1.38567674
H        7.84134912       5.72322464       4.73438644
H        3.29095721      -0.32562989       3.72121763
H        3.43615484       6.34053898       6.29889727
H        1.18325436       4.74149561       3.58255601
H        2.89824128       7.71398163       7.19220352
H        3.93520784       5.06210995       2.01379800
H        1.07024145       7.34898758       5.79162931
H        4.65187073       9.42024136       9.68642235
H        5.80966568       5.49773312       0.51409209
H        7.98470020       4.05348349       6.54307699
H        4.19709730       6.76736689       3.05871105
H        8.31695271       6.76156282       5.34790087
H        7.27613354       8.46632576       7.86801577
H        4.18966389       8.68601227       1.34705818
H        7.27846718       4.52403307       7.41454744
H        2.96539974       2.86101437       6.14665699
H        8.10733318       4.93811464       8.44073105
H        3.15711451       7.27092934       4.92304564
H        0.34527978       6.36801815       6.10980129
H        6.35348177       8.10059834       8.65420151
H        2.76252699       6.01409817       0.79339981
H        2.99321508       6.83286905       3.13697410
H        6.87060928       8.84547520       6.90090466
H        0.90208137       4.53539181       0.25719655
H        9.29968357       0.13542761       3.62739897
H        5.64724445       9.01636696       1.52331603
H        0.40327469       2.87294722       1.95476389
H        2.08551598       5.10281897       7.62750626
H        2.93509388       4.05093765       6.70946312
H        1.68376064       7.27597332       7.62498808
H        2.39440346       3.27862072       3.59848022
H        8.65888977      -0.08847825       8.91256809
H        7.13420057       5.16957235       8.20170116
H        6.52566862       3.52212572       7.92355824
H        7.77070093       3.66656756       3.36190820
H        9.39238358       7.36705971       5.57812166
H        9.07203579       4.09422207       2.26409721
H        4.23208714       7.48555803       4.93900681
H        7.09949923       4.26653481       8.61638546
H        4.82813025       2.72145152       3.91431737
H        7.31143856       3.30219769       7.19983578
H        6.31405878       2.62499404       3.73215628
H        1.78742325       3.21527052       2.34401965
H        3.61145735       3.39640784       7.39276886
H        7.60746813      -0.11771750       8.49302864
H        3.19796586       5.88446379       3.86121154
H        7.36238480       5.88456631       0.71349913
H        4.94747877       5.24404192       5.52498436
H        8.56390190       6.12333488       1.68684494
H        4.09668255       8.48463154       6.55811882
H        2.35192299       2.19342875       2.55752611
H        5.43991280       8.37956810       7.90874243
H        4.17496490       8.14539814       7.98727894
H        6.74836206       8.04556465       6.17733717
H        6.34957361       4.18429756       7.18571329
H        9.00703239       6.70961809       7.11666012
H        2.82905197       1.57873666       8.98556709
H        0.04158790       5.20700502       9.61474228
H        2.07503366       2.83451009       7.52124119
H        8.77440643       0.98711938      -0.13107760
H        5.46834135       5.53096962       4.04371548
H        3.05011463       0.32715690       8.57532024
H        1.24976826       1.76032722       6.99002695
H        4.71974039       7.71813679       7.13208342
H        0.02018177       2.32863641       7.92272425
H        9.47404480       1.69130814       8.91832829
H        7.67239618       7.48758936       8.64458847
H        3.12674189       5.26091385       6.11368799
H        7.82456350       9.49842834       6.28267908
H        4.54419994       4.81416416       9.09695911
H        0.08037008       3.16770577       6.43950939
H        8.17274857       8.50512791       8.26407814
H        1.72633433       6.81018209       6.63520813
H        0.29464421       6.15345240       9.37771320
H        6.64785242       3.85858321       3.19139194
H        1.35573602       4.92275381       1.32167304
H        0.35828835       7.32586050       1.87724543
H        4.12549162       0.06942739       5.97629881
H        5.27407742       1.20289278       5.48951864
H        0.03759062       6.07158375       4.46721840
H        7.68651867       1.06242168       3.87662411
H        4.38854837       9.10964680       8.56523609
H        5.31782913       5.42745495       1.72831738
H        9.65756512       5.15877867       7.35882092
H       -0.03160094       5.74473429       8.16190434
H        3.53466272       2.82186317       5.01037312
H        7.89772129       0.38403156       2.13779569
H        6.17689371       5.45599890       7.79146767
H        5.36841202       0.21080907       4.40981770
H        4.90139246       8.00718021       2.26064372
H        7.50327778       1.51918852       2.77045751
H        7.06726789       5.79514360       6.80077362
H        5.74573851       6.37901068       8.91935253
H        7.56025505       5.07845926       9.33719921
H        2.11811328       3.90690899       6.05727530
H        8.41609669       2.12648606       7.59325123
H        0.18624607       1.23538351       6.98928165
H        0.37845016       3.20880246       8.65410042
H        0.70670348       6.39364910       7.23432732
H        8.70848751       4.68113279       0.19893958
H        4.95561409       3.82471704      -0.29526776
H        5.77935791       4.57359838       8.96936131
H        3.33029747       5.90922213       2.59341860
H        2.97586393       8.32654381       2.43508530
H        0.68943518       6.85364008       8.32881260
H        3.88682294       3.62496567       8.52067471
H        4.57977486       3.07022548       4.95057487
H        4.26738262       3.20274568       5.95626068
H        2.23711848       1.32408679       3.34173703
H        3.00726843       7.69368172       6.13679695
H        5.34139156       0.68677396       6.70594263
H        5.58962870       3.05162668       8.85436916
H        4.15246439       4.61991119       3.74546432
H        4.69524288       8.92691898       5.64022970
H        8.13853455       3.76227617       7.97562408
H        7.06599712       7.77297497      -0.06369583
H        8.48401451       2.89718437       6.34990788
H        5.45105886       3.25048399       6.80119848
H        7.85107279       6.86610413       6.86855459
H        6.79449368       7.50846148       1.11967611
H        6.17846537       7.99223042       4.04597759
H        4.69950342       4.12072611       6.06226826
H        9.03683853       1.04124796       8.13105679
H        0.35726061       5.40653276       5.72269773
H        6.28281498       6.74745798       6.97456264
H        2.57617259       5.93413544       4.90854025
H        4.94780016       7.27139521       4.15549994
H        4.17308712       2.90689516       1.56506824
H        8.53406715       8.03764153       5.19572496
H        7.24135399       0.86168247       5.83933830
H        8.37761402       5.75529099       0.49957702
H        3.78790450       8.31716537       5.55204868
H        7.78024054       6.08355236       7.65182209
H        1.48188353       2.73606038       9.06869698
H        1.87653875       5.15170002       0.06482420
H        0.53616232       3.74744344       4.62415981
H        4.44931889       8.71908665       2.80795884
H        3.07042599       2.70568538       8.21444988
H        7.03168249       1.43878317       6.74809599
H        2.66571236       1.45578539       0.58159345
H        5.05467606       4.01733685       3.59492397
H        7.03857708       3.53045392       2.05080009
H        9.09347916       0.43865106       5.61295271
H        3.31999326       7.09559917       0.59628654
H        1.57335103       8.07501125       4.23841572
H        6.77160835       5.37480688       4.52514839
H        8.08637238       7.47409916       3.56579757
H        9.26393700       2.23586655       4.55342054
H        0.28505555       6.39800882       2.21717215
H        2.41497183       7.80946445       8.21365738
H        2.56311464       6.51886988       2.19117641
H        1.15081084       2.89283347       4.53672123
H        7.88496017       5.09161949       6.45619631
H        1.27100837       1.98191798       5.22293282
H        2.26067924       1.08271182       7.23747778
H        4.13895655       4.56831264       8.17132282
H        4.57475996       0.64815271       1.30719900
H        3.07711554       4.18245029       4.79879141
H        6.70669508      -0.11263938       1.48023736
H        6.19199610       4.62370539       2.11765265
H        8.46763134       5.96413469       6.18660593
H        5.61855316       8.41522217       3.11411715
H        6.21636057       9.00456333       4.74681091
H        3.11944914       8.65991592       8.42622566
H        1.57161880       3.64351773       0.05401418
H        8.23816586       9.14988804       3.49368429
H        7.17136717       6.25287914       5.55937576
H        2.23666430       9.45013905       2.77452207
H        3.77416420       7.42507172       3.72287750
H        2.51833057       7.06222439       1.31618512
H        6.07862759       3.60398006       1.37955332
H        0.53679860      -0.28209102       5.19375658
H        8.27015305       0.86349034       4.74972248
H        3.57423973       7.12934399       2.08958530
H        0.29942849       1.30939865       5.50326157
H        5.68089867       1.99353945       9.16926098
H        8.70288181       4.22392941       3.54869318
H        6.08710623       6.66412544       4.45624208
H        4.61166620       0.31213182       2.41873765
H        1.52779567       1.60062170       9.00141525
H        5.77411890       8.86232758       6.43195200
H        3.35774088       1.01328516       5.52603626
H       -0.35182416       9.32623768       6.65984297
H        7.46863508       7.72325373       4.33166027
H        4.79541397       6.11759090       6.59445477
H        3.75785851       1.81379998      -0.04233206
H        8.29275608       3.11659884       4.58661509
H        6.11077785       9.04798412       3.67126966
H        1.10029876       0.75006616       7.33294678
H        0.96187818       0.90553862       1.11099422
H        7.63692617       6.45257998       3.67560124
H        9.41245651       8.55366516       3.49070358
H        7.60398149       8.86772633       1.34009087
H        7.13552284       2.13793445       7.52775192
H        5.44246149       7.88666391       5.85776949
H        1.78801656       1.16687441       2.41926742
H        2.31472373       5.05576134       5.38029718
H       -0.00091326       8.17299175       7.76418591
256
Properties=species:S:1:pos:R:3 pbc="F F F"
H        3.84944439       7.91653824       7.13186932
H        0.95415878       2.11481547       1.19571090
H        2.05856276       6.00118685       4.01832819
H        8.84814644      -0.03093022       8.55163574
H        3.15021420       5.97754431       5.07836866
H        8.28532696       0.63991618       4.11255074
H        2.41679859       6.30561066       0.47557351
H        1.51398611       4.83798838      -0.23925930
H        8.05351067       1.66963875       3.60693645
H        7.37155724       4.67489624       4.49114799
H        3.61574459       3.04968286       4.02151060
H        6.90937662       9.43753529       4.82126427
H        0.96550435       2.94146633       8.48139858
H        0.76858974       9.17354202       7.09121990
H        1.85312700       3.70492673       8.46622562
H        6.22548723       2.93720126       4.47946072
H        4.20430422       3.01281261       8.84454536
H        8.82620811       8.14665508       8.81113625
H        5.35873032       0.90940458       0.13484751
H        2.52979803       2.48895001       6.03524351
H        9.34111309       2.56893349       4.95649099
H        7.88406992       1.92768276       5.46692085
H        0.87997139       7.65494108       2.16472650
H        1.21521139       6.81646347       2.77581453
H        0.37408036       1.50932336       8.00535393
H        7.27751207       8.67024517       0.66826725
H        7.42312431       3.41810417       0.53570759
H        3.74422097       0.40191337       2.99494600
H        5.16697216       6.10140848       1.35215461
H        4.42012453       9.24543762       5.92930031
H        1.41574705       3.19910288       6.43513107
H        7.98878431       4.04921770       2.82795858
H        2.86213017       3.40556526       6.07570124
H        5.39727020       2.53016186       5.52637625
H        5.63737535       9.56706810       4.24632502
H        1.64340734       4.95246696       5.04195499
H        8.05358887       5.55280590       3.96516109
H        7.25290728       9.70711803       6.80029392
H        8.10221386       2.35739970       8.26959610
H        3.42952228       8.89773750       3.04225373
H        0.65091467       7.69158983       4.52524233
H        1.50636160       4.21995687       2.98183727
H        8.42589760       1.91529000       0.57269943
H        3.09094429       7.87779570       5.32230091
H        6.90076208       5.38571358       5.02423286
H        0.42559868       4.69958115       7.37147284
H        1.47138453       1.56615388       1.99064744
H        6.83105230       5.60057402       2.43407345
H        9.57419395       7.12231541       3.01877141
H        5.92032623       9.29171944       6.19416094
H        3.56918311       5.20613575       8.54260635
H        2.57923245       9.10790157       2.34834909
H        3.81151199       7.86620283       6.04800081
H        0.19269398       2.49152255       3.60448909
H        0.86513770       7.42996025       0.20171560
H        3.13961554       1.88650358       3.57460427
H        0.24758676       4.10480118       8.35739422
H        1.81672347       1.99465287       3.87697172
H        0.34187457       6.43525219       4.52830553
H        3.36682034       0.08775680       4.89077950
H        1.47313237       5.56388474       6.28571653
H        8.95779800       1.86901343       2.04781985
H        2.13148046       6.50504923       5.78692865
H        3.67592049       4.08810377       3.52708626
H        9.22911835       6.05405474       3.57228971
H        8.05924702       1.95837343       2.43114805
H        3.43241143       2.85204196       7.84087706
H        8.08330917       3.55627728       3.68314815
H        4.41364622       5.72485352       2.29435325
H        0.61784863       4.94493961       2.77290654
H        6.58920860       7.57346773       1.14674258
H        2.59104228       7.44022703      -0.30914867
H        9.57990265       3.60058093       4.94028473
H        2.41428900       1.11721420       5.11102581
H        0.71783060       4.78895521       5.92106295
H        3.33650875       6.86411381       5.93354797
H        8.65241528       7.95978832       7.23588085
H        3.88962364       8.82277107       1.66733801
H        2.63014174       6.06167078       6.58526373
H        3.26533675       7.46657944       3.27507520
H        6.41857958       2.32556915       7.26837587
H        4.96566772       4.53317690       1.18080068
H        0.92349994      -0.28518906       2.04945779
H        4.57171154       0.57680362       5.22583342
H        8.78199196       2.35295272       3.21987796
H        0.80366105       5.49634504       8.85393620
H        5.31309080       1.01049042       8.25461769
H        1.22968698       8.55915737       0.64842117
H        2.45794058       2.85812044       4.38426542
H        0.35803035       7.66236877       8.16464043
H        8.14652920       5.21192265       0.40634367
H        6.14289665       4.36420107       7.20351171
H        7.44016552       3.77211022       1.65503037
H        0.27889371       7.59435606       6.66455030
H        8.03110886       6.06963015       2.73707581
H        1.65904629       5.31685829       3.41232705
H        6.16886282       5.30582380       7.56701994
H        5.13410568       2.59210229       4.52284050
H        5.04458857       3.96432209       7.18824673
H        5.34937286       1.43108451       6.88547182
H        0.93317032       2.98287725       2.05121183
H        4.01923704       6.28453684       6.50631428
H        9.45333195       8.53825474       7.46705198
H        6.89087772       5.29957867       3.38899732
H        8.98341084       9.53935432       4.96877241
H        9.11469555       6.30944157       5.23485994
H        8.03776741       7.95826864       4.59831190
H        4.47381020       7.10699558       5.33061361
H        1.93517840       8.18677998       8.23519230
H        6.01512766       8.78441334       8.31882668
H        5.15731621       9.44445229       8.91254902
H        6.61163187       7.44343567       6.97812653
H        8.01965618       5.12723064       6.04170656
H        8.04872513       8.25166321       6.24728107
H        4.37469673       0.07874858       2.21582127
H        9.35925007       1.25296855       0.90901858
H        7.30044270       1.97483552       9.16644764
H        7.52352285       3.22198296       8.85380173
H        7.30807734       3.17717743       2.49008298
H        0.95895892      -0.51303089       4.97063971
H        0.37382028       2.40525866       7.45023537
H        6.47180462       7.91215134       8.11596107
H       -0.10412001       4.43137932       9.89623070
H        2.12059140       0.56870782       8.90566158
H        7.19589901       7.32672262       8.59769630
H        1.79996324       3.44027615       3.72093630
H        6.21931458       2.23250318       6.07637501
H        3.40099955       4.40527248       7.00014162
H        8.34921360       3.39448118       7.98399734
H        2.35347199       7.41164732       0.99900234
H        3.13981056       5.37255859       7.21760416
H        0.02656403       5.73223972       0.18147071
H        6.51985407       6.87201071       3.87418723
H        1.10480654       3.08777714       0.24304275
H        1.21562386       8.41500092       3.11701822
H        5.62059212       2.75459814       1.86370778
H        4.43343401       3.37076902       4.78709221
H        1.11905241       3.64499307       5.54250193
H        3.66018796       1.18868518       4.49517155
H        6.50283432       0.82939714       1.52394235
H        2.99139142       5.75490189       2.80211306
H        9.10360622       5.36372852       6.13902426
H        8.83100033       3.12674046       8.85237980
H        2.20061803       4.52677631       3.98741913
H        1.38252473       0.16244529       1.10631001
H        8.63446808       3.45027566       6.90788364
H        5.35385275       9.25374794       5.31512785
H        6.99606848      -0.14560108       1.47084832
H        9.11364174       8.07825565       2.04751086
H        0.51937711       6.00911903       5.94887018
H        6.46103811       0.87998629       0.37537110
H        8.32334042       7.17736340       7.95840168
H        2.53473234       1.93140399       7.74374866
H        9.46972561       2.53850365       0.52349079
H        8.74894238       1.50778306       7.57937813
H        2.62489653       2.38522840       9.46918011
H        9.42502213       6.77387714       7.43033266
H        8.66727257       4.13784266       1.99641967
H        6.10337925       5.19517326       0.97526616
H        3.96315646       5.08034134       5.89718056
H        3.32772756       5.01051426       4.19311285
H        4.54364777       9.69425011       4.26840115
H        8.67646027       6.08379030       8.43092251
H        2.21328568       5.43436480       8.12448502
H        2.25233984       2.08648086       2.44029617
H        5.72712421       3.87931466       4.82213354
H        1.09401953       2.12998128       2.96844912
H        3.37785125       6.21654510       3.96720552
H        5.46827602       7.41034079       8.12515545
H        7.50852537       0.78132188       1.12527323
H        6.48205423       1.92381072       2.78010631
H        4.98019838       7.89463520       4.85488892
H        7.17847347       4.03523397       7.47402239
H        6.22015190       6.39080381       1.77225935
H        6.69022226       2.99606061       6.65191793
H        1.77762365       4.63589668       6.15800953
H        8.69303036       7.30933523       6.34482622
H        8.76786137       6.54777622       0.69088966
H        4.51927090       8.51275730       3.59911919
H        3.65946031       3.76702642       5.22891092
H        0.80404425       0.50508898       8.03495026
H        0.14594162       5.76855087       6.94611549
H        2.83284521       6.13122082       8.76270294
H        1.18779349       5.95760489       5.13171387
H        4.18873787       6.06380129       5.40305662
H        5.03408051       4.38722229       2.48142552
H        1.64176488       8.21568775       4.22598696
H        9.42474556       1.36241913       4.88796282
H        0.20511265       5.04835892       1.26645362
H        1.56694102       8.48653889       6.60966206
H        7.68426275       6.39257431       0.67725736
H        0.24193205       3.32078838       1.47369504
H        1.66575837       4.42135811       7.42514086
H        2.00260186       3.85126543       4.95507336
H        6.61915064       6.55788136       0.33031321
H        2.04443049       2.24634004       1.32950866
H        4.66147041       8.50617123       7.92427158
H        6.53131437       0.39823687       3.94361210
H        8.52361488       2.93711662       2.25145316
H        8.48239422       4.11364508       0.88976449
H       -0.38504672       1.19419467       3.02117276
H        4.16127253       6.93319702       0.27635527
H        9.24090099       9.49853420       3.42936826
H        7.69304609       6.78121519       4.18862104
H        4.77278566       0.10896227       3.23851967
H        0.75022912       2.07207727       4.29441738
H        2.59711242       6.71782589       2.68335891
H        5.47217751       7.14771032       6.99661207
H        2.85899901       8.67646217       4.08747196
H        0.89068019       3.08677959       4.45298100
H        7.08620501       5.59849024       6.11715221
H        4.34583378       2.72387195       5.78548288
H        6.08280373       3.15561700       7.88957500
H        5.36487436       4.18697023       6.25197363
H        7.14232254       8.24124146       4.49656200
H        1.70109367       5.85454082       2.11308098
H        8.24169922      -0.06037058       2.49883080
H        8.28328419       4.45346117       7.20013714
H        1.19223011       6.71465635       6.31852531
H        2.65350151       8.02394485       1.85734701
H        9.04756355       0.77734041       6.84011984
H        2.66797090       7.00650930       4.99662113
H        2.65013385       4.36032534       2.67746210
H        6.10378122       8.39145374       2.78776217
H        9.29868984       7.60865736       5.38794851
H        1.47640514       1.10079801       6.77325249
H        4.11913681       6.98772144       2.66183615
H        3.35481167       8.32996082       9.15092754
H        2.96759105       3.31493402       8.80047607
H        1.26716578       7.04621887       5.22078705
H        6.96296215       1.63435066       4.51175833
H        3.78343511       3.72989011       1.28354716
H        0.78138912       2.55396271       5.29742718
H        7.38277578       8.24825191       7.66558027
H        8.39266968       2.79817629       4.58242655
H        5.48225880       7.14773989       5.95687485
H        4.10055590       8.40417767       5.25175667
H        2.60684204       1.57493889       0.78678018
H        4.88284206       8.09373379       6.39153767
H        2.15553904       9.38886929       7.77852964
H        0.58968413       1.26179457       5.84038448
H        5.06750488       8.60870457       1.57292938
H        6.24811029       6.07449579       6.54666662
H        3.87282681       3.98206687       7.91350174
H        8.87595940       4.52963209       3.99050975
H        6.06933260       8.55640221       4.60060787
H        9.79445171       7.98703575       1.32040668
H        9.28174877       3.26135039       2.91149807
H        7.58493280       6.72677898       6.62617111
H        2.11080718       9.38310528       3.39790344
H        0.66363692       6.24794340       2.04206705
H        5.49966240       2.98693633       6.96242571
H        5.15761280       5.26392603       5.46858311
H        0.88566715       6.56183195       9.06141186
H        1.14065552       6.83340073       4.00927925
H        1.21346939       9.12628078       9.04582310
256
Properties=species:S:1:pos:R:3 pbc="F F F"
H        5.85982513       6.80410671       6.51445675
H        3.84435010       2.62334037       1.64991069
H        0.98014700       5.44162226       4.13830090
H        6.47352457       0.76777828       0.15108639
H        2.65220308       6.50590420       5.53782320
H        7.29996777       1.73035514       1.86121750
H        6.38694859       5.31048775       7.76214695
H        0.70152128       5.01785612       8.55034351
H        0.85242456       9.74534798       4.65950918
H        7.38480043       6.72507620       4.25656271
H        5.12379360       2.55839348       5.79339075
H        6.43607712       8.37786865       1.39250624
H        0.79204720       1.15831995       8.69003868
H        3.05360436       8.98940277       7.15033770
H        1.49996293       0.88460308       7.83344078
H        6.33405685       2.70647454       2.06266952
H        2.84276986       3.82945871       0.28078973
H        8.00180531       8.47201157       7.28764915
H        6.82845068       2.95745468       7.54548883
H        1.40988815      -0.27275038       5.94704771
H        7.36836958       1.46077251       4.08303452
H        6.97013474       2.57785988       6.29743862
H        4.03669453       5.97205639       2.83282590
H        2.99225211       9.36888313       2.96214199
H        8.97100067       9.37638760       7.70299101
H        1.52933657       9.40792274       1.79144752
H        9.99069405       3.75120950       2.45520544
H        3.12563777       1.00171447       1.61396444
H        4.89217234       8.19842339       8.21091080
H        3.50002003       8.07536793       7.52797890
H        1.17489910       3.64084363       4.90563059
H        0.23551702       4.57139301       1.13935816
H        0.84900016       4.22932720       3.59098530
H        7.71150398       1.64796412       6.23505402
H        5.70618010       9.19563866       4.91588402
H        2.59948444       5.27390957       5.98066807
H        7.87534618       7.00150251       5.27886057
H        8.52664661       1.31762314       7.84628725
H        7.07135820       3.61129546       8.45955753
H        2.29884911       2.25995469       3.29837203
H        0.61600411       6.57803106       4.13865376
H        2.62234020       3.14729428       1.16887200
H        7.46044636       0.38162997       1.18861866
H        4.58065653       0.80160642       7.42577410
H        5.91407108       7.13276958       5.57185268
H        0.76807272       4.75601912       4.93182659
H        1.49107766       0.25834107       2.74363184
H        7.35170794       9.41197968       0.10911849
H        2.63542151       1.01237428       3.36881208
H        3.27244258       0.63075292       6.99633265
H        4.57351208       5.03234100       7.08894253
H        1.54537129       8.23262310       4.24755621
H        4.24118948       9.31768322       6.73122835
H        0.86389244       3.13886070       1.34788013
H        1.72706366       8.75626850       7.70577812
H        3.34292674       3.31560946       2.24576163
H        9.75177288       3.82398224       7.35220480
H       -0.34109205       2.65323353       2.79118061
H        0.37920329       5.70659828       3.34030867
H        3.98390985       0.35067710       5.87116957
H        1.72747040       5.80782318       5.52958393
H        1.69907010       3.39449596       9.34878445
H        0.79535973       6.47679090       5.31192064
H        5.43874264       5.09402752       3.82537961
H        9.71058941       6.49515009       2.29274487
H        5.21695662       3.56908178       3.78685427
H        1.62586975       1.11190438       6.06073713
H        6.19905949       2.76354742       5.19547606
H        4.58860779       5.75210667       3.67174911
H        8.25747681       3.74829793       1.69011629
H        5.25768852       2.91045237       0.44285935
H        0.65214157       7.59482098       6.51923323
H        8.23757458       3.91193295       3.15079880
H        4.79257393       1.57588506       4.97629642
H        1.22739959       4.67761517       7.61008072
H        3.51486087       8.20729446       5.98352289
H        6.63350821       7.76355743       7.71176004
H        3.24668407       6.00677776       3.65350962
H        3.53966713       4.94371462       7.67808628
H        3.67648935       0.69051170       2.48711276
H        5.13149548       4.54662085       8.06077194
H        4.61102104       5.81528807       1.63305354
H        8.71494579       9.52456570       1.49196124
H        7.03714037       0.60422504       6.09282207
H        9.47363091       1.22668326       7.33136368
H        9.92946434       7.16991472       7.48651361
H        8.47590256       9.40029430       8.96948433
H        3.72246385       9.31170273       1.68013453
H        3.97665358       3.07132244       5.59310818
H        8.95414162       8.02167130       8.05366802
H        6.51349115       5.21099615       1.75761390
H        4.57568121       5.25434160       8.94963837
H        7.35028315       4.39876270       2.24613404
H        8.77184296       7.49705267       4.95621681
H        9.22690868       4.76036596       4.24772024
H        0.83019042       4.91411543       2.30621791
H        5.29463530       5.69120455       6.42659712
H        5.33134794       4.44057846       6.34395456
H        6.45610571       2.24289274       1.03084183
H        3.39494991       1.88088727       7.01490784
H        3.00162935       4.55300617       2.43735671
H        3.24937963       3.87309694       5.25138569
H        0.11851431       7.97111702       5.50683737
H        5.18056011       5.90081406       4.54492950
H        8.24236202      -0.31529507       2.70653558
H        8.50199795       3.85368156       5.14344501
H       -0.43321612       8.73533249       6.22058201
H        2.77350712       7.41094780       4.97722578
H        1.81357312       6.98136711       5.87589884
H        6.29821444       8.79339695       9.62633991
H        7.59062147       0.26035678       8.31755733
H        6.52489424       6.88829803       8.42342472
H        6.08674669       9.52106571       6.15606117
H        7.50726032       8.20725060       4.30273247
H        5.57835245       8.34944916       4.11390018
H        0.92411822       8.67346096       2.66132784
H        7.29229927       4.38864183       7.30294847
H        6.48811865       4.37027502       0.60969067
H        8.00671577       2.81909800       2.63851810
H        2.20150471       0.59956092       4.24987459
H        8.59158707       3.64162827       7.58560371
H        4.86361217       6.14472914       9.22264385
H        9.35134792       4.86213446       9.38127041
H        3.33500290       0.91714531       8.99726295
H        6.68209791       5.35866880       6.21746016
H        2.20039606       3.37166286       3.05526042
H        5.73983431       2.02289224       8.93381119
H        4.89340687       3.40293765       6.60675621
H        1.68739963       2.86469388       4.25214767
H        0.62762207       7.91207933      -0.04784055
H        4.41078377       4.28748703       0.26878601
H        0.12879470       8.43787670       7.03164577
H        1.96853328       7.32600164       4.01537180
H        0.65214193       3.89244413       0.02489724
H        9.58324623       8.16621017       3.04657483
H        9.15534210       6.82010221       3.59858632
H        5.70301676       4.31136799       4.73263693
H       -0.14895968       3.79466939       3.70276761
H        3.83755088       2.63409662       4.06554747
H        1.03101790       9.18479156       0.92332649
H        4.36987209       4.09771633       3.25270653
H        0.36973238       5.43513393       7.26121712
H        8.91928387       0.94896883       0.78108674
H        1.61948466       4.93062687       3.42272305
H        1.44963837       8.40941525       9.48177338
H        0.44122484       1.58304787       5.18503237
H        4.64724493       8.84242249       5.37258339
H        8.62217999       8.30255985       1.85225534
H        9.03924561       5.89484262       5.29403925
H        2.94426012       7.40303469       7.01915550
H        0.88256878       2.41777897       8.45637035
H        7.56967402       6.30004454       7.88313293
H        3.45625806       6.57038927       1.67658556
H        0.10314137       8.58337307       1.81164837
H        0.06110134       2.85663915       4.23533630
H        3.41802192       2.92404509       0.45919713
H        7.77758598       6.51948214       6.89146090
H        1.65691626       4.01657200       1.83455598
H        4.60228777       2.74483132       2.93995595
H        4.82961607       6.91899633       5.89061069
H        3.67505169       5.04326439       6.49313068
H        3.60508943       0.48792166       3.53038478
H        7.22844744       5.21406746       0.87269562
H        0.76599497       5.95263577       8.18520164
H        0.64298457       6.91294098       3.15538764
H        4.19017935       8.82978916       3.65899181
H        3.10827112       1.27138817       5.06955338
H        5.01432467       4.72217894       5.32897043
H        8.65041351       2.19032574       8.32536602
H        6.96529627       7.11837149       0.47199893
H        5.41740370       9.34024239       1.57873666
H        2.08992386       7.55818129       2.28022313
H        7.14191532       6.17300129       5.88236713
H        5.19317102       7.51791525       2.85218430
H        6.42780304       6.20805216       4.34109020
H        3.04217100       3.85349393       7.15706396
H        9.30249023       4.83411503       5.43540907
H        8.51373482       5.12830400       0.81165951
H        4.08856010       9.08340263       0.72662163
H        5.05996990       2.64486074       4.75133276
H        0.36068043       0.51613265       9.52382088
H        1.33265567       4.35118532       5.96442699
H       -0.23320511       8.78282547       8.69814205
H       -0.13304462       4.75483418       3.22899461
H        2.82299876       4.83241701       5.00382566
H        7.35183382       3.92623615       3.96748066
H        1.08461750       7.47372627       5.06211567
H        1.92468750       1.67553198       4.89188910
H        0.26220787       6.89203691       8.51259804
H        1.85098970       8.52438068       5.33518744
H        8.54603100       6.25409937       1.85903656
H        6.39399719       3.42809582       3.86365819
H        8.94855785       1.85268843       5.73452330
H        4.21175289       4.11262369       6.07034969
H        8.20128250       4.84339619       7.93121719
H        4.48431730       4.86311388       2.72569156
H        2.58742142       5.16127348       0.37761876
H        6.01634264       8.32248116       2.91059041
H        8.61161232       1.49449146       3.98278260
H        9.01498890       4.61812544       2.17768574
H        8.58703613       1.75947309       2.89045453
H        3.04820156       6.37173557       0.31515169
H        9.14654255       8.88850594       5.10881472
H        8.13456345       7.53543043       3.13121629
H        7.23628235       7.40831280       6.34640169
H        3.47529101       3.02978706       8.74379063
H        3.97266173       5.54321098       4.85883760
H        6.04072571       2.30512595       7.80547523
H        4.17993164       1.66711450       1.06449783
H        8.26579857       2.59481287       3.63186812
H        7.01522207       3.56584740       5.33455849
H        4.72696972       6.34437799       7.26313019
H        5.01897001       2.56128359       8.27191639
H        5.95786476       3.12039709       6.19258070
H        6.59326982       8.78507996       8.29636574
H        3.69727540       5.26174641       1.74703002
H        9.12628746       7.17952538       0.84801644
H        7.92441130       0.83445555       4.62652826
H        4.04019928       7.16167641       6.49673700
H        2.18261600       6.27441692       2.31120276
H        7.95273685       0.96774548       7.00949240
H        4.13444567       7.92803192       5.15656567
H        5.45444822       4.14107418       0.66403103
H        8.04569054       5.78832436       3.04742002
H        0.08873882       7.78016949       4.37174320
H        8.07175636       8.34558010       5.94245768
H        1.41584074       6.32639313       3.58632588
H        2.79167247       7.58005857       1.66348124
H        2.06574392       4.03487635       8.51319981
H        1.96131516       6.76800919       7.67195225
H        8.05933380       0.22733261       3.58384228
H        6.10903406       3.70487046       2.02947450
H        0.66501004       1.65702617       3.73407102
H        8.81944275       7.61471128       9.20624542
H        6.84060526       0.75432467       7.51920557
H        4.97156048       8.52028656       6.49879026
H        3.24408579       0.12658972       4.63852358
H        2.95952964       1.99112332       1.07286119
H        4.55677414       7.49281216       3.70709491
H        7.27699804       8.42703247       2.61713076
H        4.08926916       1.08222961       4.34391117
H        2.07041788       0.69134659       1.14071214
H        6.77258587       8.81923294       5.13311434
H        6.72536564       1.41389763       4.91813803
H        8.15261650       5.30068302       5.83157396
H        7.26567173       1.17141676       8.63101864
H        2.98298120       5.63023186       2.50892615
H        1.39007378       1.83264136      -0.06395380
H        8.86704922       6.16920948       8.55545807
H        2.53278017       0.22468664       6.27336216
H        1.70905828       7.42064333       0.77416885
H        4.32664585       1.42837691       6.13115931
H        6.02092934       5.64261532       5.26843548
H        3.19734478       2.16780829       8.04182529
H        2.33986473       6.41177797       4.38365126
H        3.17433524       0.16354144       8.01988602
256
Properties=species:S:1:pos:R:3 pbc="F F F"
H        6.79790449       9.26054859       5.39991713
H        6.38834000       0.85303164       1.20119131
H        8.57204628       4.30822039       2.75437951
H        6.80968380       2.88501549       5.63813829
H        2.24117255       7.52711773       4.77058935
H        9.00870323       2.49162912       0.06670950
H        7.25994873       6.88831520       8.00681019
H        9.58172798       2.48826551       8.04189968
H        7.81672192       2.57047129       4.17997742
H        7.29411554       6.78201532       4.99153423
H        6.33668470       4.30137205       5.25369072
H        4.69599581       9.28974247       0.71920592
H        0.70166028       0.08866647       1.04711378
H        2.87353945       9.89426708       7.32677650
H        2.83830690       2.49684238       5.61135626
H        7.43438673       0.61902279       1.43042397
H        6.23844481       5.19625473       0.97557044
H        5.46441364       2.01970482       7.01700163
H        7.57462740       0.71493572       6.12342453
H        1.36394656       8.22924519       6.60034084
H        7.37693787       2.18482685       2.97985911
H        6.91823483       2.69027376       7.62552834
H        6.20395803       7.93309021       1.03902924
H        2.48325300       0.66148371       0.47695911
H        8.34339714       8.11016941       6.44788074
H        2.03023887       1.88033354       2.36768818
H        8.80994320       2.55861354       5.88465738
H        3.15651298       1.10929155       1.20156884
H        5.96829367       7.61634731       8.05228710
H        4.52531815       9.29720974       8.43452168
H        1.02651262       1.47495484       4.57118368
H        2.58454990       3.51628780       8.17601395
H        7.85697222       3.66037083       3.37688732
H        6.05470991       1.17278790       5.93259859
H        6.72612047       9.60788441       4.40473795
H       -0.16153270       5.58787537       5.08584452
H        8.31770802       8.33902740       4.06163025
H        9.44966602       4.61399412       8.58853340
H        8.00885963       2.57605672       0.62476522
H        1.53488612       2.68159103       1.44336414
H        1.83853388       4.48524570       2.41910601
H        4.03085232       4.04574633       7.70060253
H        5.74248934       8.48033237       5.49917173
H        3.20936108       9.16681385       5.86564207
H        6.96673346       6.38696671       6.01435947
H        1.25054085       3.22121334       6.36185074
H        2.12492800       8.67160320       5.68372107
H        5.47828913       7.26488972       9.15449238
H        4.30992413       3.20584989       5.86292410
H        4.78938103       1.35136282       9.13596344
H        3.81923532       4.11076546       6.69876242
H        7.45021343       6.19472408       3.41249251
H        5.04025555       7.19924831       7.92161322
H        1.04186714       2.95370412       0.36576560
H        2.14381194       6.00129032       7.10362530
H        4.35953617       5.70723152       1.17881203
H        1.86398292       3.87303972       5.65294313
H        0.70199883       3.60628271       3.04449368
H        7.95413780       5.03252459       4.30450773
H        5.19977331       9.34831333       6.01623726
H        1.37862921       6.12823725       5.86761141
H        0.63588840       3.61030293       8.31185627
H        1.25212538       2.56809092       7.97659540
H        6.12201357       6.82931137       1.10302544
H        2.51010680       4.80096769       0.71076888
H        5.17855406       4.63498974       3.80108809
H        3.09637952       2.57713318       2.96689963
H        6.62039804       4.11080933       6.40723801
H        2.60854745       6.16390467       4.89028454
H        5.44120884       3.68443346       2.60194516
H        3.14138198       5.87289190       7.20695496
H        8.73017502       5.60970497       5.78319359
H        6.25645494       3.22315574       4.17296314
H        5.56827354       0.30778483       5.11581802
H        1.48338413       4.48389006       6.49239159
H        2.16325092       9.09822083       7.67182493
H        4.89405632       5.02954626       6.36280155
H        5.22858524       4.98797464       5.23560047
H        2.30661368       3.55280638       9.37811661
H        2.01133323       0.54307520       4.80473423
H        3.17767763       3.50252008       5.77226019
H        6.76409388       7.73682308       2.14655638
H        8.78239727       1.61414218       8.93022919
H        8.23888111       9.69162941       2.99612188
H        2.87483644       2.59399962       0.06716565
H        2.35433555       7.64104319       7.88627195
H        0.41803500       0.94095087       0.48293388
H        4.38984251       0.93478680       1.55826759
H        7.98991728       6.02462721       4.89406204
H        7.99547195       6.91734838       6.24069738
H        7.67223692       3.47871542      -0.18286781
H        4.40958834       7.84203768      10.17335510
H        5.27041101       7.40318775       5.11281538
H        0.49125308       7.81066799       3.52078533
H        8.80218315       4.42229319       3.91900635
H        1.68260181       6.73372841       2.35827231
H        3.21595168       7.56114769       3.04017067
H        9.61230946       5.74588823       8.04567337
H        3.90245843       0.77971089       0.39498502
H        4.73726463       3.57371283       7.10072803
H        2.39794135       6.26376247       0.56451130
H        5.52931881       4.29752827       6.78674841
H        9.01976490       6.67945576       6.05165434
H        3.63073897       7.34722328       5.32086420
H        6.13247347       8.79649830       8.42888641
H        8.55875874       9.05009842       7.47715187
H        9.15586567       9.01170921       5.45682287
H        1.01336133       7.05016518       4.49766350
H        2.49861383       5.28107977       6.50164986
H        6.12369013       8.97533321       0.31334963
H        6.13166809       9.60897541       2.71823192
H        7.97427368       5.68521929       0.28601059
H        4.90566397       3.03088284       8.12173176
H        5.15691090       7.77433109       2.18426466
H        5.52084684       7.32296324       3.53720427
H        8.82190609       0.96294087       2.35478878
H        7.77973938       2.85192895       5.20107508
H        0.56013149       4.39543533       2.09959769
H        9.51174259       2.05922961       4.65778685
H        5.07657337       1.20001042       3.34333086
H        2.88253927       1.35385001       7.62362194
H        3.57218170       9.07192898       0.67035687
H        1.42827833       3.15480924       8.90238094
H        2.02048516       1.45756423       1.40308309
H        5.86264753       3.56338406       8.00260448
H        3.30126905       5.72129059       4.08912706
H        5.75796700       4.62976170       9.55465126
H        7.68470764       2.95901799       8.52547455
H        8.98387623       3.36468053       3.00145888
H        8.53367424       6.92615223       7.35647583
H        7.21916723       8.11506939       4.15968847
H        0.16107081       8.13230610       6.78891754
H        0.85400438       6.92067194       3.12072420
H        5.10208225       2.94329143       0.35656831
H        8.00599670       5.91802025       1.32478094
H        7.93599606       7.70563269       5.31303883
H        7.42793655       4.92151785       5.34107113
H        8.12809753       1.88060057       4.94402361
H        2.63267255       4.35895681       5.00675821
H        0.44199416       7.85229969       0.10544235
H        2.74013638       2.97081947       1.71403539
H        8.62314606       3.21934986       8.79083729
H        2.17322469       1.92032301       8.26423645
H        2.22708488       5.35301304       3.30911279
H        3.75446200       8.68205833       9.13602638
H        1.46403885      -0.14377896       6.73819494
H        4.04223967       2.60884762       4.82418776
H        8.79009724       4.80266476       1.83697939
H        6.89049530       5.44540167       6.46891451
H        3.31099296       6.98605728       7.87375975
H        4.66400051       4.99660397       7.67634535
H        8.54291725       5.94283485       8.38766193
H        1.53802800       5.90487099       9.12088203
H        8.91221714       2.40253234       3.82760406
H        8.18231106       3.61081815       2.05126572
H        3.40621376       6.80978584       8.87189770
H        5.16115808       9.19107246       7.31480408
H        1.03013885       1.74495637       0.77005583
H        6.00349808       0.64538771       3.63405418
H        6.86356544       6.06192827       2.37194753
H        4.39385033       7.34365368       8.89681625
H        3.99203181       8.57662296       5.60644913
H        4.60340166       6.23891211      -0.13055733
H        3.56034970       4.36312389       9.98708534
H        0.36394820       5.50149536       2.47012019
H        3.23280263      -0.51182699       4.79903889
H        5.06400490       2.59442186       5.92601871
H        4.26658773       6.44251156       7.62196970
H        9.51224899       3.70354891      -0.09636232
H        0.75982046       5.14418650       9.15834713
H        7.78731441       7.64238119       8.70673752
H        0.68653107       3.29793262       1.75614655
H        7.73147917       4.60101604       7.11215305
H        4.17543554       8.02011585       1.75293303
H        9.10673332       3.86675286       4.67733145
H        4.29152870       1.44119716       8.30030727
H        0.55374622       4.18250942       5.63363123
H        3.81960535       6.91809607       0.89005315
H        3.35965157       3.89191604       1.35995889
H        5.39477587       2.45179343       4.94316244
H        1.61293793       9.01858807      -0.28368616
H        1.10178542       4.81639719       3.93974996
H        9.38401508       9.31189537       4.20575428
H        7.75805044       5.02651024       3.07159400
H        1.48512304       5.91253424       4.14276743
H        5.07343292       1.21898520       4.73049927
H        0.60944748       5.20760250       6.07012701
H        4.35462475      -0.22575156       4.50455141
H        1.20738101       7.78795719       8.83098698
H        4.89006948       7.53294849       6.70917559
H        9.29519367       6.36241531       0.90721202
H        7.05575657       3.72877908       4.67440748
H        7.95375109      -0.23616144       4.08382177
H        4.00900507       6.02158928       4.64203787
H        0.16053653       4.66595316       6.94939184
H        5.43261385       8.87779999       3.35859275
H        9.20159531       7.01373863       9.50818157
H        4.63903522       8.12273788       3.71032310
H        8.25486755       1.15765285       4.11791706
H        2.05008721       3.99839592       1.44930243
H        9.07492161       0.28516358       1.22257960
H        4.46298599       7.00707674       1.96851158
H        1.50390422       1.08147931       5.51997662
H        0.41886809       4.62088299       3.07324123
H        7.52134514       7.53562403       6.98683023
H        5.16581392       8.94382000       2.11718345
H        5.08043385       6.46904945       4.18422794
H        4.12783813       4.41102171       5.68257284
H        6.72125483       1.26556444       9.83249760
H        6.85405254       2.50917006       4.69787598
H        0.38211977       1.47968197       5.79066324
H        5.88907480       5.40506029       6.16051817
H        4.14018440       2.68239927       1.85203123
H        5.78725767       3.08766961       7.02379990
H        5.88542175       6.40087175       7.90097857
H        4.77540827       3.19672990       3.29379129
H        7.72355556       5.66917372       7.64923382
H        8.67501259       7.20272875       3.48351836
H        4.94979954       6.40473938       5.53046942
H        1.30133319       4.69313812       0.93892723
H        7.95553493       0.43902928       7.71732473
H        6.94718218       8.52843189       6.64930010
H        3.99084640       1.79938865       1.06617332
H        8.57987213       5.59616470       2.84758425
H        9.05573750       6.81354761       2.12677169
H        6.79424000       1.34486198       6.79160166
H        4.43439102       4.68545485       4.42907286
H        3.08544087       9.03005600       1.55945265
H        0.82854193       5.71061134       7.16010141
H        3.46420884       5.24103880       5.79059076
H        1.10885799       8.86406708       7.57793808
H        5.87086153       1.82991087       2.56463480
H        8.42114925       1.99524868       2.50463009
H        8.82981586       4.88268328       0.71610785
H        6.83897400       6.05489588       7.31764078
H        4.05294943       9.15836525       7.00481892
H        3.10953426       9.56735134       2.77092814
H        7.14063644       4.42906570       3.88484669
H        5.52273846       5.96631336       3.33858633
H        7.69897175       8.83762741       1.64898396
H        4.12460756       9.18815613       2.27169013
H        2.02267146       0.45581788       3.17346525
H        7.15039062       0.11427002       2.41880512
H        3.22192550       2.69830251       6.62413216
H        6.29040194       3.39488316       9.42080879
H        5.19962502       1.40517855       0.75912148
H        5.47863245       5.91568995       1.80585539
H        4.43815994       2.21451640       3.92217064
H        0.49678454       6.34790087       9.29932594
H        3.89526153       0.44135651       7.92531681
H        2.22752881       8.34040642       1.92187643
H        4.12503195       2.08988023       6.20155668
H        5.26969385       5.85586405       6.81373549
H        2.54984045       0.98618007       6.31864357
H        3.93568683       7.05414295       3.98084140
H        0.88876498       0.93223703       2.20486712
256
Properties=species:S:1:pos:R:3 pbc="F F F"
H        5.69069195       0.58886862       8.34768677
H        6.56631422       1.41539371       0.29145524
H        7.71608019       2.83370590       0.62845117
H        7.79172373       1.77726912       3.48397326
H        0.31163096       6.03828669       5.49974346
H        0.14012995       2.86558390       0.68078530
H        7.14600897       8.55002975       7.87989998
H        8.06722164       6.95936966       6.21983862
H        9.22830868       8.43231773       6.35825682
H        8.10085106       5.06975126       3.41861320
H        5.50972223       3.91162777       7.28954315
H        3.49328375       0.25998524       1.01769137
H        8.54406261       6.51205015       2.58717752
H        5.07150698       8.87116528       8.02892876
H        3.55969787      -0.48188606       6.60420322
H        6.09033966       6.42158556       2.10579014
H        8.98200798       6.09491253       3.63471460
H        8.07955742       2.56947327       7.26258755
H        8.26194763       1.63330734       5.73941565
H        8.45334148       8.32872486       3.56228447
H        6.54214334       1.75218320       2.27354527
H        5.83726788       2.31692910       8.27713966
H        5.37003040       7.04322433       2.49053478
H        1.20381582       2.68386841       8.40444660
H        1.21870840       8.00806999       1.87165678
H        1.91721570       0.75615048       3.04716134
H        6.56451416       9.52313519       7.11319399
H        2.85794687       7.07718611       0.26458645
H        8.28201962       6.03165627       8.90919304
H        3.35855412       3.18689609       9.14865780
H        2.84669733       1.07537413       5.00198650
H        1.88768828       4.54666853       6.03749800
H        0.73222423       4.69963408       4.11049271
H        8.96929646       0.77363062       6.71022511
H        7.88545275       0.64277035       4.39717627
H        1.33051622       5.21831179       4.81252241
H        6.66654968       7.57382202       3.06269383
H        4.57046080       4.65506744       2.29163790
H        1.65842974       4.60654783       7.61837530
H        3.16579008       2.24465561       0.81602091
H        3.43312860       5.88147020       5.37219954
H        3.36173630       2.41092038       8.30429268
H        7.10968876       9.76198483       8.10687256
H        2.65341091       0.09251297       4.32554770
H        8.35785389       5.15927267       5.35943985
H        5.02986622       2.52162194       7.27474880
H        1.81212032       8.46892738       5.45789003
H        0.71872151       6.55109978       2.49149013
H        3.42770457       7.86526251       7.08288336
H        4.56756020       0.33991370       1.56833386
H        3.68780708       4.23903608       8.25105858
H        7.99802256       7.52192926       2.56273937
H        4.83259344       7.35436583      -0.25525543
H        2.86447382       2.77932978       1.72470927
H        3.61434340       4.38405228       9.28009033
H        3.55820584       7.85030937       1.24648380
H        4.16227770       4.44198990       6.70187426
H        7.27586889       2.29717827       1.88029075
H        7.57714653       7.96782637       3.94655228
H        2.95730782       8.26550674       5.03470755
H        0.90995044       2.43581462       3.27061152
H        0.65399319       1.47216976       6.41319609
H        0.55580199       3.91208553       7.70335150
H        5.22219324       7.31111526       0.86831665
H        1.44736159       5.42102194       2.28937578
H        6.53707552       4.63844728       4.97510576
H        2.83104014       1.08800817       1.73860312
H        8.06404781       2.73609471       5.84667635
H        2.14380574       7.12900734       7.71178436
H        4.33475351       5.54562998       3.13102674
H        6.03896379       7.33255768       7.83024740
H        0.38500422       7.29422426       8.33546638
H        3.50838923       7.11479568       3.61895418
H        6.75655222       7.86410522       5.10190630
H        9.58356667       3.16252971       6.28633165
H        2.61737847       0.87009120       6.45285034
H        3.83762598       2.20072961       5.59229040
H        5.68192339       3.30465293       6.05817747
H        4.83123016       3.75049806       9.04068565
H        2.81073284       8.36070156       6.30829859
H        3.21901226       1.17692661       2.81151986
H        7.83100224       8.12334347       0.77362359
H        8.87052059       3.31986856       7.63866997
H        9.53525543       2.46009493       4.29698992
H        5.55614662       1.63111055       9.11663532
H        4.15203285       0.10631541       7.72734737
H        7.71639061       1.08173525       9.63337231
H        1.92393076       8.41733074       3.85860777
H        7.89187241       6.43705177       4.02811432
H        8.17914391       6.33118057       5.38045931
H        9.62472343       1.94906187       2.71249127
H        5.67389822       9.23280907       1.64481914
H        6.79006767       0.42735738       9.20821953
H        2.36530089       7.27619982       1.15359962
H        9.65527821       5.64466906       4.47247458
H        6.31092119       5.47890282       3.82411027
H        3.07529020       7.63933468       2.15782309
H        1.23496616       7.55093956       7.61217451
H        5.55320597       0.06630915       0.70285481
H        8.46904564       3.35561752       9.49699116
H        2.74841094       7.19887829       8.73732567
H        5.87725925       5.31161880       5.46820021
H        8.92410564       7.81356812       2.26093984
H        1.28364563       6.46596241       7.08839655
H        5.90770435       7.61844635       9.26554394
H        9.18202400       1.60978854       0.45505989
H        8.37364006       9.06358528       1.97854722
H        0.59838331       8.96893787       1.63322425
H        1.71485996       3.26739812       3.09211135
H        7.14424133       6.24392366       7.15754795
H        5.07920122      -0.01776000       2.56454277
H        0.05961225       5.34530163       8.62054825
H        4.40373373       1.35991251       8.79775143
H        6.44107056       8.20366478       1.86111891
H        4.96433592       8.37308025       2.67126060
H        1.41658378       1.49615431       2.41442108
H        7.30317593       2.26926637       6.52447462
H        2.42125320       2.04610896       2.65768600
H        8.96608353       1.37138200       3.95046902
H        3.44116855       1.53953338       4.00644541
H        5.88808107       2.40899682       6.74550438
H        2.48148060       6.47120905       2.44946837
H        2.07332683       3.83715129       7.04659081
H        2.51375270       3.82674003       0.45388603
H        6.54966021       1.69911385       8.77872372
H        2.73962307       6.38145971       3.97568488
H        4.35151911       6.69832468       4.44822884
H        8.69253445       0.13834839       5.64054918
H       -0.41396314       0.87486178       2.78162432
H        0.15259795       2.43269110       8.18572807
H        7.65945435       9.37287617       3.05651116
H        9.23980045      -0.04738259       3.41445112
H        9.05987549       6.08155489       0.97264063
H        5.76357365       2.65021825       9.34458828
H        5.82021761       5.22452402       2.73057413
H        6.65522194       6.39100933       5.63683319
H        9.13251972       2.76478100       5.34291077
H        9.42357063       0.22430556       4.75921059
H        1.52003145       5.90803528       3.65789795
H       -0.11669035       0.57284909       1.76853263
H        3.89227915       1.85327566       1.50732434
H        8.95716381       2.32143307       6.63663578
H        2.65909219       2.29096913       7.36333418
H        2.32045197       4.12899256       2.43984222
H        3.43115425       2.00029612       9.29357910
H        0.13413036       1.54834569       5.01040268
H        5.37953806       1.28985310       6.58498573
H        1.17005491       4.77602530      -0.10423578
H        7.42175150       5.60932064       5.81508446
H        4.27070236       5.08150721       9.62671471
H        5.37516212       5.08485699       7.27883434
H        1.59496832       5.54938412       8.37109375
H        4.25833845       7.07741690       1.89080310
H        8.32467461       0.80490059       3.32849216
H        9.25498199       5.12301826       1.66382349
H        4.42914343       8.07942677       3.56288743
H        4.16087914       2.38228917       6.72754002
H        1.75782037       1.24240613       0.89728200
H        7.30950928       0.01593061       1.96812272
H        8.31638050       8.50071907       8.17348003
H        3.99391341       6.10559225       9.46332169
H        0.68072939       6.81379271       6.02738857
H        5.98421907       6.27798891       8.40655422
H        8.35367966       3.54948497       1.94206667
H        0.64469850       6.58277845       1.18708599
H        2.13589001       9.05434704       6.99525547
H        5.57923174       8.19050407       4.68420696
H        9.17190170       9.32733059       8.33544827
H        1.85325551       3.86463809       8.95195580
H        2.12442493       2.46559143      -0.16581951
H        8.88416004       1.05174959       8.20725346
H        1.31381893       6.80563831       8.35548878
H        8.63746452       3.32205963       6.58144474
H        4.89817762       8.44017792       1.42085063
H        0.85475039       1.31494367       4.19910288
H        2.45977163       3.53885388       8.05671215
H        7.97259188       4.72791767       6.24559689
H        4.20955420       5.67118931       1.00225055
H        0.93347603       3.54177022       5.19665098
H        5.52998495       2.39642191       5.59115982
H        1.33363509       7.06254721       0.41905102
H        2.52823758       1.65212536       3.62104392
H        9.14683056       7.43174314       3.22056270
H        7.66879654       6.43448496       3.02255511
H        0.33550504       8.20276260       2.79780793
H        4.47641325       7.36218834       7.63185120
H        2.21594882       6.35897160       5.10896873
H        5.43870592       7.18291759       3.71673250
H        3.85642385       8.02788067       8.08928013
H        8.48265362       6.66827440       7.88249016
H        9.37304592       6.10174227       9.33920193
H        8.82072163       4.72005749       4.41691971
H        8.20102596       8.97655201       4.29724407
H        2.72061872       5.55803633       6.41394949
H        8.30072498       5.98153305       7.03976583
H        3.86921334       7.66756439       4.60180473
H        8.74795628       7.09796524       0.05698024
H        3.69895959       9.00988007       3.12024355
H        6.58532572       1.81333494       4.93869495
H        0.46567941       5.55810881       0.89187813
H        8.02346992       5.38722181       1.76507795
H        4.21449900       6.65192890       5.61514711
H        7.81527567       0.55299932       5.55801725
H        6.85987663       4.75089025       2.89530444
H        8.19595146       7.94397020       7.18711996
H        4.03142071       0.44286656       2.54043341
H        5.21912766       5.82007456       3.54037213
H        2.74820995       4.66700029       6.84387827
H        0.11820287       2.85683465       9.15971851
H        6.80348110       2.61308002       3.12902737
H        8.00688839       9.48313522       6.87892389
H        6.16124296       6.43446493       7.14026546
H        5.68205929       2.90516090       1.80744934
H        3.04649186       1.67526698       6.21314812
H        6.58138561       5.47908783       6.80354071
H        3.37515736       4.46920919       5.27684259
H        8.99452305       5.29596186       6.58197165
H        6.54571581       8.69442558       3.14883327
H        4.57711077       3.64177370       5.35301304
H        1.90255737       5.37501812       0.44148859
H        6.74622679       5.62103033       8.08148193
H        5.76481104       7.11309290       6.12564182
H        2.90385985       0.64874262       0.07409021
H        3.73079419       4.48917532       2.74121690
H        9.11999702       4.38543367       3.13093305
H        7.15330172       1.17162693       5.88030434
H        2.03198147       6.61516953       6.18232250
H        1.28215289       8.86592388       0.85645014
H        0.81382734       2.18506718       5.72814846
H        2.73633623       5.40081692       4.50983477
H        0.62281150       2.15762138       0.19765726
H        3.82895231       3.27574515       0.67001784
H        9.73249245       3.85822678       1.58609211
H        8.30258656       4.15850925       7.10246611
H        9.89099503       6.49561262       7.57189131
H        3.66796422       9.40436554       9.33489895
H        3.19977450       2.75534177       3.57960296
H        6.71250582       5.86349916       4.72338009
H        6.77940607       6.71769905       3.90732169
H        7.00490999       2.57488012       9.41418171
H        1.42726302       0.24793448       4.71788549
H        3.11373210       9.41956806       1.91016889
H        1.30091202       8.72155285       2.92660856
H        1.11439633       2.53661251       4.72605324
H        7.89203024       5.57253075       0.27872831
H        6.26787090       1.01603389       1.38610983
H        5.18295813       8.57325459       8.95227814
H        5.80316734       2.61586857       4.23881340
H        0.53677773       8.35321426      -0.14949587
H        4.68851757       3.16617155       6.46359205
H        1.77791739       0.20820315       0.19081439
H        3.73562193       0.57301730       4.42998362
H        4.34219170       5.63385820       6.91508150
H        1.29251099       1.36936557       5.19395685
H        2.47277451       7.57770634       4.28849792
H        4.03600407       8.82028961       2.13643098
256
Properties=species:S:1:pos:R:3 pbc="F F F"
H        5.59736109       1.13704967       6.84818745
H        9.00129604       5.61492300       7.78275681
H        8.56059456       4.46983433       7.86889410
H        6.96588087       1.14122474       2.00996947
H        1.89981508       5.83214426       3.80458188
H        0.62971395       3.30642676       1.39021158
H        7.67630816       0.65089709       8.29170895
H        0.02834174       8.96477127       8.25945091
H        8.89610577       6.63131618       6.77931881
H        6.51863527       7.88834143       4.68999386
H        7.51838112       2.41550970       5.84628105
H        3.44503379       2.08987951       0.47873843
H        7.83753777       7.30091333       1.98727238
H        6.90928221       0.68498069       7.66144085
H        4.83270836       0.22282074       4.25158501
H        3.87926197       4.32011127       0.54945219
H        8.20298481       6.79393673       3.41636729
H        8.99487591      -0.51984954       6.44081450
H        8.52949047       1.71431720       4.30262518
H        8.93966293       7.53396606       4.20363379
H        6.56802559       2.68643880       2.40529966
H        5.53720379       2.50413060       7.25663376
H        3.16164637       6.13199854       3.87237501
H       -0.27248776       2.75010324       6.06607628
H        3.45921135       4.90619516       7.10690832
H        0.90232801      -0.00493700       7.93992329
H        6.54271507       2.01642346       6.87426186
H        5.01738071       5.90644836       0.39461905
H        9.47041035       6.82875872       1.79012764
H        2.49014187       2.91065001       0.20617904
H        3.59880352       1.17442393       5.53418207
H        2.27309179       3.01822114       6.50452900
H        2.31120062       5.24746752       1.91190743
H        8.63830376       0.55467540       4.62712955
H        7.01391792       8.94976139       3.44056201
H        3.88050532       4.76566887       3.98622894
H        6.81673574       6.04412031       1.73803127
H        5.41924095       2.67140484       8.68845558
H        0.26368690       4.88948059       7.87166882
H        2.94855738       2.80964255       1.21619642
H        1.97709310       7.32481480       7.81804419
H        1.62237179       1.69516647       0.61774427
H        8.98637581       0.35807541       8.05687618
H        2.28769732       0.69950122       5.70787096
H        1.34698331       6.48146534       2.02899408
H        2.10825825       1.59237111       9.01963139
H        1.44609118       5.80660295       5.33423233
H        2.05452991       8.05333424       1.01633549
H        3.72052526       6.90074539       7.47095394
H        4.38721371       0.36087033       0.44615889
H        3.42894864       1.49257755       7.82359219
H        6.84987593       6.18787003       0.63572878
H        4.67242336       0.17582633       1.41863525
H        5.66713715       1.54393482       2.72466993
H        4.81431246       5.09910822       9.09312916
H        3.96667218       7.93473101       3.68045115
H        5.24711084       3.41261292       5.87297869
H        8.63887310       5.39401007       3.43127370
H        8.53996849       8.07651806       3.08057785
H        3.05660987       7.54328537       6.74045372
H        2.20758343       2.05267310       2.43342423
H        2.81552529       3.24482799       5.24527121
H        1.01180708       5.84783602       7.73734856
H        6.09777308       6.17627716       8.98569393
H        9.37096596       5.87052774       2.82472658
H        8.32510662       3.55858612       2.52967477
H        2.94508386       8.38488579       1.73280907
H        8.59731483       1.31230342       8.33069515
H        2.80079770       8.38834381       8.43431473
H        8.24128914       4.30098677       5.41068649
H        7.61765289       7.77343512       6.49481344
H        7.77630901       9.39275074       0.24932931
H        3.33228993       7.31680965       5.46620178
H        8.15320969       8.38238525       7.51144314
H        8.26874161       2.71552086       7.59018707
H        5.59951067       0.06067437       6.68064356
H        4.60244417       1.30028510       7.90438509
H        5.48583174       4.13354969       6.89087534
H        3.98855352       1.96596408       8.66997051
H        4.47533035       9.10640049       4.92375469
H        4.29062843       0.67244798       2.41389680
H        5.89982462       2.24712682       1.14484644
H        7.93906689       2.35349894       8.73761463
H        7.49961519       5.96099567       7.15658808
H        4.38163948       1.07906926       9.21509075
H        5.72898960       8.72489262       5.95048380
H        5.33290339       8.50292969       1.19108462
H        2.76252246       0.40291288       7.85927629
H        8.40120506       6.64522552       4.71105194
H        9.56055832       2.64716268       3.63339949
H        1.47295368       6.70242977       0.46086270
H        7.38791990      -0.20657173       1.83867717
H        6.86652994       6.18960094       8.20399857
H        3.50463200       4.96122742       1.75951374
H        2.65867257       4.85637856       3.11739278
H        7.46643782       4.56413221       3.26896453
H        3.41165709       7.10728455       3.68057871
H        0.39388147       0.29544342       6.60547447
H        5.56220675       1.51544690       8.43981934
H        9.31220913       3.71766353       8.98697281
H        3.88763618       7.55552626       8.95717812
H        5.77499247       6.50890255       2.48882771
H        0.65728945       7.62439156       1.77319634
H        2.20949268       8.60326481       5.89459562
H        3.86208272       3.28233838       8.28951645
H        1.28022063       3.62018943       0.36560562
H        5.39898491       8.71675777       2.98037672
H        0.67345816       1.32174957       0.51004398
H        1.16434634       2.78625631       6.18812561
H        3.38583112       6.42445660       9.00771904
H        2.94724250       8.46612549       2.94402170
H        9.17658615       5.81348896       8.80565357
H        2.52769923       0.56476605       9.24287987
H        6.20372057       9.61419964       4.41762209
H        6.79648209       8.00865841       1.32103908
H        1.51698065       0.46529248       3.70928192
H        6.69539165       3.19086051       8.64373493
H        5.52721548       0.26605171       0.34181139
H        9.75116444       1.04825032       4.30916166
H        3.46462584       9.11924458       4.00606966
H        0.34461793       3.61061931       7.77804804
H        7.64401197       9.45339966       4.11814308
H        2.30715013       1.76858449       7.27729368
H        4.66692162       3.81945801       1.44285882
H        6.59181976       2.16940498       8.06259823
H        2.31515932       5.68882704       5.90343618
H        4.26091099       6.74069595       5.52033901
H        1.59042513       8.61642075       4.08488750
H        8.52802658       1.38688004       2.53914833
H        9.27042580       2.75020528       7.93346977
H        7.22838783       1.11852908       3.82296896
H        9.25335407       6.94500208       3.44413471
H        6.96991253       4.53008747       0.90220821
H        3.81947041       3.35508728       1.02800846
H        6.55009937       4.30290556       6.63191366
H        6.64576292       7.11882448       6.10551977
H        9.20815849       3.88248134       6.33135414
H        0.58991492       9.44542408       4.66234303
H        2.52239418       8.02724648       3.76279831
H        8.24806690       8.30157566       1.53016067
H        7.17055464       1.41701257       0.69433945
H        7.06108999      -0.39289993       6.55044889
H        4.39223909       4.34068584       8.39474010
H        4.23531389       1.11112165       3.50217772
H        3.03381896       1.39296377       2.03020835
H       -0.26468286       2.59098315       4.97338915
H        3.09389806       1.36383009       8.90146637
H        1.05575120       5.77508211       8.92348289
H        6.16855574       5.25987864       6.18320179
H        5.71338749       6.52742195       1.48439837
H        3.24918604       6.45025635       6.12946224
H        0.01964317       4.75180197       9.07565594
H        2.31776476       7.52107239       0.14957775
H        7.15478945       0.61870867       2.86220407
H        1.12746680       3.16198134       3.15114713
H        5.03800678       7.68524790       3.22019005
H        0.55204910       3.51316428       6.61608410
H        2.32593346       0.63128233       1.62231719
H        7.00461006       0.43919352       9.47448635
H        9.53377819       7.53098249       0.77836126
H        5.75490475       4.52249479       8.88956928
H        7.56184101       3.72256541       4.01561737
H        5.95316839       5.49895477       7.77611446
H        1.23295903       1.02841556       2.83281517
H        8.24129391       6.50469589       0.87325209
H        4.21181393       8.20821095       7.43019581
H        4.03381920       5.95299625       1.37690294
H        1.06251621       1.66119897       8.21001720
H        1.72390580       4.22914314       9.14735794
H        4.89913321       5.09439802       3.48649144
H        7.62592888       3.28993440       8.25479031
H        9.20871067       1.49225032       7.15028477
H        0.81793630       2.71276522       7.79238844
H        3.59372735       7.41544485       0.79284680
H        0.40614346       0.46789879       3.24863291
H        3.71311092       3.19741607       9.45418930
H        8.38368320       4.85286808       6.73930073
H        1.53062952       8.26436806       2.42715359
H        0.70796120       3.07268691       4.34010649
H        7.09279299       2.70603776       4.43483210
H        0.22633508       0.81477112       8.79676723
H        6.51816320       2.01537442       3.27230048
H        9.11793518       7.81812906       1.76380146
H        6.17632723       7.92168093       3.28009892
H        1.32872868       9.27326107       2.77960420
H        2.75641203       4.14307404       8.64426422
H        0.60286582       8.10763836       6.38630819
H        6.66393661       4.34413862       2.54465818
H        4.53722525       8.64440155       6.56954384
H        7.15957546       7.09371805       7.57913637
H        5.78318310       3.29925370       0.87654006
H        1.26283479       5.57583714       3.08204508
H        4.53259611       5.55990744       6.61632156
H        2.45394969       6.32269430       7.22039032
H        0.90736419       6.75273323       6.81832218
H        4.70814371       8.08975220       5.62580109
H        4.59747124       9.10566235       7.68338537
H        2.04735923       7.88704538       4.93002081
H        8.41809940       2.48988438       1.85721970
H        2.65737724       6.62040329       1.73224711
H        8.16925240       3.82292175       9.46843719
H        6.17150402       7.74097204       5.53111029
H        7.42650747       5.17665291       6.30362606
H        4.30102301       5.84019947       2.63654137
H        3.42945242       2.18955040       5.66467857
H        5.98220968       1.47508490       3.96609616
H        2.66082215       5.31671095       4.73209381
H        4.69565344       3.43786263       7.10920954
H        0.92792618       3.44700360       8.79400635
H        8.62055111       1.42847812       1.45048630
H        7.92767859       0.18207188       7.34042072
H        3.48142076       4.85481930       5.85886812
H        5.15379906       1.76992178       9.41757202
H        3.61490297       4.12996531       5.23573208
H        5.68987226       5.57571125       1.12740874
H        5.58377028       4.42697430       5.73412228
H        9.44977570       2.98105145       2.34497499
H        4.97144079       8.50131893       4.31632423
H        3.53504896       3.02720332       6.38174009
H        1.16006398       8.50022888       1.07580912
H        7.46292019       5.00402021       7.61471128
H        6.59159851       9.01761913       7.72573948
H        1.93367243       9.18392086       1.01890171
H        4.00874710       2.54293346       1.68284249
H        0.68772358       2.21701598       1.10086513
H        4.60205889       2.24134445       6.67872238
H        5.49619102       8.75760746       7.19516945
H        9.59422970       2.65041471       8.90584183
H        5.68993664       0.37567919       5.24341345
H        3.13735151       5.91693735       2.56398249
H        9.67549038       9.35318851       0.92369765
H        4.84478378       2.36358762       1.28591287
H        3.35111046       3.96441579       2.25965500
H        7.35536242       3.14846516       7.25165749
H        8.80297089       7.57901573       8.13086891
H        2.98669219       9.18468571       6.62184429
H        4.16788149       3.17866445       4.84637928
H        9.53264523       4.65478086       5.02280569
H        6.34796667       5.65453196       3.55793190
H        6.30764294       3.24838161       7.10472965
H        3.39211488       1.55461645       4.40343523
H        4.24664927       8.08166885       2.32969618
H        0.76872879       8.99529266       1.90649295
H        0.21154699       1.87398994       2.49522161
H        8.23301697       7.68199682       9.91567326
H        6.84670258       3.39251518       0.45690319
H        4.19129848       8.95334721       2.98584700
H        7.50442505       3.08889890       3.15023923
H        9.83781052       8.88181686       7.20947075
H        4.50304079       2.55519176       7.66470098
H        2.41179347       8.12958622       7.22529173
H        3.19829416       8.24198437       4.55615807
H        2.00011778       6.00918436       8.17668247
H        9.16978264       1.34394753       5.76419306
H        1.88283491       7.49601507       6.71858692
H        2.67313766       7.48590469       2.23995161
256
Properties=species:S:1:pos:R:3 pbc="F F F"
H        5.46834469       2.86315823       7.25746012
H        2.29603648       6.45971346       4.37286139
H        2.19273472       5.07413912       8.61678600
H        6.70731831       8.69909000       9.12328911
H        0.12094425       7.98378706       4.39371967
H        9.07161331       4.72852278       1.59451509
H        7.10671616       0.50443238       7.69231796
H        7.78678226       5.51111460       0.53135777
H        3.07285476       4.12369299       4.69688797
H        7.76387405       8.82059383       3.97646403
H        1.35653913       3.31398773       2.50653720
H        5.45784283       3.47394609       0.61044687
H        7.89504099       7.12662554       1.61513317
H        6.79032469       0.42061424       5.64145184
H        6.10167742       0.80809516       4.20096159
H        3.72277117       3.14067841       8.46610737
H        8.45659351       6.83869553       3.23045230
H        6.16455841       7.13252640       5.31681252
H        9.42849350       0.56750464       0.46485877
H        8.22213840       7.98152781       3.48514462
H        9.63121128       3.26723409       2.50358415
H        6.73224974       4.16732311       6.94102430
H        5.61797857       4.35757732       2.94556999
H        7.75989151       2.82689047       7.31916761
H        4.00014544       5.77095604       2.07101798
H       -0.18102673       0.52124274       5.90295553
H        4.69635534       2.47194958       8.56954575
H        4.77198553       5.93865728       9.48101807
H        0.69435650       5.97250986       4.17369509
H        2.62071705       1.97400010       1.24547040
H        4.62781763       8.07559490       9.10451698
H        2.60445690       4.96375895       5.53752804
H        3.10754061       3.44722700       0.70456976
H        9.27410507       3.16543341       3.43989086
H        3.61147118       1.08218384       6.18768358
H        6.41580153       6.01276636       6.00168943
H        4.39060688       7.56715107       2.92209959
H        4.62761736       8.61244774       8.21422672
H        0.41523364       7.02595425       9.36653805
H        0.53180933       5.10227156       1.36040974
H        3.76995420       8.03383923       0.32449958
H        2.38767147       2.99791813       1.75392950
H        7.29409456       2.29152513       7.91838884
H        2.78514171       2.95603919       6.01928043
H       -0.14233837       6.48828316       0.69362158
H        2.60421801       0.24060376       7.98329258
H        8.58777809       4.86152935       6.68463755
H        3.39020467       7.92310762       2.15005136
H        4.09619665       7.78538513       6.66607046
H        5.21272326       1.71651423       1.43970478
H        4.08473110       1.08472311       9.61176777
H        7.74102306       5.80082989       2.06517601
H        4.37282658       8.39228344       2.07263064
H        8.64983463       1.88928890      -0.08563793
H        2.27124405       7.72873068       8.72745132
H        4.89472246       9.27360153       4.87029266
H        3.99741530       2.96537471       7.45106363
H        9.36149216       4.21672153       3.09404802
H        9.20479107       6.92080116       2.33670712
H        4.66748619       6.76104641       6.21122265
H        1.92766404       2.30762458       4.05862856
H        3.56430507       4.98630238       6.31912661
H        1.68420482       4.25868464       4.54540682
H        6.85597897       7.03594351       1.70124841
H        6.36814594       7.12404728       2.76763129
H        0.36221316       3.34769130       0.20916474
H        3.35483551       9.43003273       1.87129796
H        7.66028309       1.12348878       9.81845760
H        1.10412860       8.14449120       1.37575245
H        0.83248150       5.35824108       3.24247789
H        7.45213795       6.85906649       5.48617601
H        6.95110703       7.64183474       0.86076659
H        3.47850847       8.14550018       5.66983604
H        6.92441368       6.08224630       4.71471167
H        6.35139704       2.48550749       6.41998863
H        7.09956121       7.44091177       6.98255539
H        2.86596966       4.75317335       6.99497223
H        6.73598957       4.89673185       6.13173532
H        3.33094382       9.13760853       0.36160484
H        4.99775314       8.32170963       5.72458315
H        2.87903690       1.43083072       2.26643491
H        7.68977928       9.25735569       9.32319355
H        9.27625084       6.69062376       7.21152687
H        5.73577976       8.45639324       7.63451433
H        7.66485596       1.41539407       3.89003968
H        7.56394911       8.95440292       1.88184619
H        3.82698870       5.49604273       4.05877590
H        4.24044275       0.25225824       1.39891183
H        8.10073376       4.75845814       5.12987041
H        2.45114446       1.94455445       3.03177500
H        8.69751072       3.87609887       8.56527328
H        5.28344965       2.85730267       1.78892124
H        4.97276402       6.44511652       8.52529240
H        5.26217270       4.91744423       8.91312981
H        5.50151491       4.98553991       5.00948524
H        0.91839731       5.67985392       0.51340920
H        6.04790783       5.98367882       1.91520226
H        7.05226421       7.11380529       8.40389442
H        4.50100040       0.69922048       8.37408161
H        1.45762920       1.53799534      -0.02062037
H        3.66993475       6.48460627       1.10481799
H        0.35029569       4.35236168       0.29098779
H        4.30146360       7.42850971       1.41342843
H        0.75495386       7.41443157       7.11256266
H        3.83707666       4.26726151       0.94631332
H        1.40542865       3.72834802       0.54671240
H        4.87713337       0.23546383       2.30852079
H        2.34792638       9.26549625       9.59201813
H        9.27174091       8.07660961       5.68509340
H        0.45685577       5.86026287       8.79856014
H        2.50956178       7.65446854       4.67480898
H        0.08310944       4.17839193       7.89055967
H        2.33412123       0.33718619       1.39262283
H        3.68003750       2.10801029       4.00614119
H        6.34113979       8.61685085       0.76554382
H        1.80615234       7.59782505       6.21379328
H        4.74367046       4.44431448       8.10373402
H        5.64672089       8.23474503       8.77290535
H        1.11806917       1.09857774       5.09832907
H        1.87683439       8.76681805       4.60912037
H       -0.24004686       2.20601964       5.42072010
H        7.45434380       0.93028802       4.68774080
H        2.38844633       8.75208950       6.00303030
H        7.17598534       3.16672802       1.16105890
H        7.44604015       1.95533264       5.80976391
H        1.99115646       2.22202802       5.24389124
H        3.27661538       5.93231153       6.38772583
H        0.71502918       7.62897539       5.63831949
H        8.28398132       8.47565365       2.32794571
H        8.19019985       2.05424738       4.57700062
H        9.31044102       8.53813553       2.95402145
H        1.13615668       6.93372440       5.03719807
H        6.35203171       4.53825378       1.51518476
H        8.29118633       3.04654622       0.42479578
H        9.63682175       4.68647432       4.36757135
H        8.18248653       7.44361019       7.16777277
H        8.45135784       3.94719243       7.49178505
H        8.63049793       7.52533960       6.11579370
H        0.99651420       8.69116306       3.90928030
H        8.61299801      -0.05534682       1.11776733
H        9.39837551       6.10211229       3.03768706
H        4.48558903       4.65180731       3.49586296
H        4.24132395       4.24837685       2.03894377
H        4.76443052       9.07246399       3.55755186
H        2.04505396       0.33256501       2.71885920
H        1.28937268       2.84479594       3.45793891
H        1.53088820       1.56655788       1.98486137
H        8.59904003       6.94530678       9.25918961
H        8.16391659       5.85748386       6.73553228
H        6.92383814       6.15129805       1.18659735
H        4.43521976       5.74978685       6.48716879
H        2.48875356       2.97112775       8.80899429
H        1.51370871       0.97907341       7.02218437
H        8.08851814       1.37387800       1.57842052
H        6.36001730       1.46494210       5.18804836
H        4.54654312       6.62173843       3.41565633
H        4.23963594       4.22506332       9.37738323
H        1.76943111       1.25155222       3.60112834
H        6.23317671       1.00195265       7.13904190
H        3.53458953       8.60292625       1.30677652
H        4.86188364       5.17500210       7.39529705
H        8.37174988       3.49192381       1.81248856
H        5.83131504       5.82222939       7.83384514
H        1.02286720       1.16600192       2.84056330
H        7.98744392       8.55160713       0.93731314
H        5.15930939       0.64093947       6.07805872
H        4.00332212       3.12648821       0.07802409
H        2.70759749       1.43195319       0.34566569
H        0.36415434       6.85459995       8.11655807
H        3.42240787       6.60152578       3.94910049
H        6.73396015       2.28305888       8.79996586
H        8.74559593       2.15900373       3.64841652
H        0.92753392       2.48949695       8.48036766
H        1.40655231       5.68610620       1.54458177
H        0.82809687       9.38289642       4.85924768
H        4.29657698       2.16192126       9.49825096
H        8.25131702       7.20913219       8.26146221
H        4.72271872       8.85542488       1.08260906
H        0.69961554       2.25870299       4.37548113
H        5.79573107       2.38069654       0.68667215
H        8.98612213       8.97541904       7.10483122
H        6.54731083       2.26420569       3.12381887
H        0.49719122       7.58175755       3.22732496
H        5.42844248       6.83294058       2.12256432
H        2.21403599       8.91299057       3.65291524
H        8.94966698       3.24406719       4.40290260
H        0.32899389       6.56354237       5.75135088
H        8.39363575       6.39954472       1.02073538
H        5.65426540       1.23379350       7.94332457
H        3.66471791       5.41271210       7.60113096
H        7.96283579       2.55497670       8.76523590
H        1.07260191       7.12197447       3.92265701
H        4.62352467       3.72443080       6.98813295
H        1.46248257       6.39764643       6.52833986
H        0.45207074       5.08664417       5.41901588
H        4.59544277       7.76169825       4.61406279
H        7.28520298       8.72915459       7.82219982
H        9.43521023       6.93325567       3.80922794
H        0.48619357       2.21889377       9.39606857
H        2.36458755       4.18352556      -0.06124405
H        8.94576550       2.87111282       9.08841324
H        6.91855955       3.94234490       5.60120058
H        5.61904526       7.62521124       6.58554125
H        4.08878756       8.62729931       4.43857288
H        3.65658927       4.04327440       6.62369442
H        2.88451815       0.28336540       5.41514635
H        5.66040897       6.60451841       4.23272562
H        4.59278011       1.63402367       7.21273422
H        1.36078405       6.38042879       7.93309164
H        0.45163465       0.05834261       2.82833028
H        6.33692265       1.27857482       8.86723518
H        0.68495733       5.62717581       6.34210920
H        6.80350971       3.87627387       0.27979526
H        9.06845188       5.48300028       4.02480936
H        5.80443382       3.11265016       2.63739085
H        7.79838562       4.38174295       6.24493170
H        9.54318047       0.81362361       1.75490463
H        9.42959499       9.10027027       4.46108580
H        4.03452873      -0.12297081       6.19387293
H        9.20883560       0.97334468       3.62884212
H        7.44166040       3.26488090       8.36978912
H        6.53299856       0.23083837      -0.18753903
H        9.38116932       8.99383831       0.09330311
H        4.02329826       2.41971612       2.10626292
H        1.56648779       2.59659028       0.62557936
H        4.92726278       3.70308638       8.88750267
H        7.33527088      -0.02206820       6.55798054
H        1.09266996       0.91234899       8.09666824
H        5.94399595       1.50095069       3.17601037
H        1.43280494       7.49743366       2.08346391
H        3.34766006       8.39890957       8.94196033
H        3.47520733       3.53088260       2.19842887
H        1.43298399       2.67166257       1.54708982
H        7.56629181       3.24622107       6.01094961
H        0.85514820       7.09006262       0.96833348
H        0.57054186       9.09782124       6.15806198
H        7.27830267       2.06901646       0.09565543
H        1.06170475       3.63765264       4.07104158
H        4.58254528       6.70969868       7.29541445
H        7.47006893       4.92025805       7.08110905
H        3.66054416       0.63224339       2.90001535
H        6.34136295       8.60725307       2.66919661
H        8.50585175       1.01967359       4.98539066
H        0.67923391       1.76920521       0.95488083
H        7.56744957       0.16632569       0.81986600
H        9.72835732       4.03029633       6.35682201
H        2.55825448       0.58168757       4.21155500
H        8.58209038       2.31194878       2.22223711
H        3.48063278       9.10845852       3.25128770
H        3.47068238       4.31195688       7.76785469
H        3.97815824       1.39834464       1.79521358
H        3.96662116       0.22843519       5.10040903
H        3.34026146       7.79851103       7.89788198
H        6.22688007       8.52724648       4.40003300
H        8.89398670       6.91487360       4.84235907
H        2.88916278       6.38020897       3.12907887
256
Properties=species:S:1:pos:R:3 pbc="F F F"
H        4.10742712       3.90096092       8.42896366
H        3.57817912       6.87580204       9.50451469
H       -0.08130577       4.80092335       8.90468025
H        4.98473310       5.50564528       1.53313816
H        0.42557752       7.77873468       6.74219418
H        8.31546021       4.86169529       0.79692334
H        0.16612719       8.90143681       6.50066233
H        9.09069443       7.20339727       0.57518858
H        8.65830708       1.62982655       4.54077768
H        7.18953896       6.43891525       4.92151499
H        4.44279480       6.55040789       3.17130423
H        4.74297857       3.80731034       0.78994083
H        9.18366814       7.61164713       3.18324614
H        6.49465370       8.43097496       6.33839655
H        5.94067860       0.52636737       3.96032953
H        6.20344305       3.80543232       7.75136185
H        0.81169897       7.55893707       5.84402704
H        4.58884239       8.12127113       5.11144590
H        2.05124187       1.17830801       8.19821739
H        0.78300130       7.59153748       4.24113989
H        5.20966244       3.48349714       8.79780006
H        7.70524549       6.57072306       6.51135731
H        6.12896109       4.20780277       2.11117482
H        0.30546674       0.54387105       6.70736599
H        2.52502513       5.52915478       2.08325863
H        4.66102314       9.19053078       4.90996933
H        5.96061087       2.03513312       8.78660679
H        4.65740681       5.81805420       2.36221814
H        8.54136086       6.21736002       3.84557796
H        1.64505374       3.93690515       0.03213821
H        3.36812901       7.83731365       9.36934662
H        2.42539668       9.19952106       5.54559135
H        2.46717548       2.06313992       2.28539491
H        0.61663681       3.94913077       2.37194729
H        1.44937217       8.64273548       7.63073874
H        6.68244219       6.15013695       6.41306067
H        3.47837591       7.27157688       2.63267875
H        3.72873783       0.98017520       0.91720200
H        1.56362653       5.91399479       2.67703748
H        0.17045709       3.76766706       9.12858009
H        5.08633327       7.10950041       9.17265224
H        0.94125032       2.79239821       2.73014116
H        7.92470980       3.65909123       7.54836655
H        2.83903551       1.00034165       7.66151714
H        0.35534441       4.61092043       1.44888711
H        4.45997620       8.56481647       7.54715061
H        9.20700550       4.45999289       0.39351133
H        2.27340388       9.16346455       4.46822786
H        4.93321180       0.54852122       7.84436083
H        9.29427719       3.16874003       2.30642915
H        3.53385544       8.90515232       1.44481766
H        6.86443901       2.98979139       2.75012779
H        2.11700416       7.27270031       3.20180035
H        7.93893099       0.19031592       8.96108723
H        5.67443228       1.18146849       7.95423603
H        6.23427629       1.96303773       3.79648781
H        3.62642169       1.70210850       7.01650810
H        0.16783398       2.60036898       0.46924978
H        1.83520210       8.20835590       3.80059147
H        2.63587236       5.37025499       5.85990191
H        1.22407460       3.70502710       3.53067255
H        3.83278704       5.20946503       6.20447493
H        4.92456627       3.13758373       5.34928226
H        5.68897009       7.50809145       2.82565880
H        4.94917107       7.48354626       3.62203956
H        0.49425495       3.04670453       8.12967110
H        6.19521141       9.10515022       2.77046728
H        7.95069408       1.30445755       0.48030040
H        9.49973392       1.16461086       3.25737858
H        7.88151884       3.49598145       2.50119591
H        5.48638344       7.66696167       5.93930721
H        9.30550480       5.93950081       0.36369166
H        4.10588408       0.45517451       4.63577938
H        7.59559393       5.35322475       6.00350475
H        6.92852354       4.77716732       4.28648233
H        6.43533373       6.37005424       0.78074789
H        1.50984788       5.39572668       6.74405193
H        8.22345352       3.64544988       4.21458340
H        2.55709505      -0.07979759       1.07408011
H        6.99528074       7.20684958       5.80150652
H        1.14026308       2.95907307       1.60785460
H        6.26957083       6.87848377       1.84415591
H        8.80692768       7.36164951       6.70068121
H        5.80188560       0.14464882       7.47607422
H        8.29455280       2.97094846       3.26177335
H        7.19959211       8.73956966       2.93079138
H        4.37325335       4.49388790       1.42616820
H        1.33482122       9.24160385       9.09297276
H        8.57286739       6.41810179       4.87238836
H        2.87609744       0.02491809       2.41281271
H        9.31780434       0.11791401       7.76899481
H        3.34286284       1.46699941       2.55796146
H        5.58568478       5.68023634       8.97990322
H        4.99996805       5.23420620       0.34948289
H        3.09199309       3.89575148       6.37969637
H        3.87236476       4.66838074       0.61344194
H        6.91380787       7.74703169       2.34195876
H        5.20362282       6.89510965       1.64311564
H        4.14041662       1.38126636       9.10242081
H        4.84072590       1.76443946       7.12925148
H        3.40155077       6.84546852       5.09041357
H        0.23357426       4.14280748       8.02726841
H        6.79377270       6.67385721       3.80965948
H       -0.02649955       7.21920538       8.97085381
H        4.98013878       3.56586385       7.66458368
H        3.23626900       4.52795982       9.17721653
H        5.44944286       2.44520187       4.79911947
H        2.23224354       8.70010567       9.33461857
H        7.31494379       7.31611490       1.13531458
H        1.19501972       4.82433605       2.10552454
H        0.02916737       1.19698405       5.74541283
H        9.53949356       4.22154808       6.27834702
H        2.57783055       8.09741974       0.57641977
H        6.96955156       1.58898211       6.48859978
H        5.88352394       6.45938301       8.30399799
H        1.67120469       8.19751740       6.48743486
H        3.74530363       1.59302115       5.78536987
H        6.62006426       6.65555048       9.11635113
H        0.99586117       2.08224916       5.93023634
H        2.78366566       0.59138191       4.14326668
H        7.79676580       2.37162971       5.67453384
H        5.98969650       0.90428203       6.05156946
H        2.53992295       6.90100145       9.16458702
H        8.11274910       8.99685574       7.30988646
H        6.22978401       3.55045104       5.50207424
H        2.21206927       4.33588314       5.66894150
H        2.89258480       3.13808846       4.97840595
H        0.80897647       6.54267359       6.75817156
H        0.74283445       7.25923109       0.26684448
H        6.85960484       3.40535808       4.76980448
H        1.26035452       9.65694618       5.38486195
H        0.22910650       6.00996494       5.43051910
H        8.87922573       3.02353716      -0.32931957
H        0.55236191       1.49827635       1.28464472
H        1.14965522       2.88701773       5.26364422
H        5.71078920       7.58618212       7.20035362
H        0.44712657       2.83048439       3.81441927
H        7.26236534       7.66826677       4.95226240
H        2.15129566       1.57211030       3.15794277
H        1.62704194       7.52979898       7.78205013
H        3.81232691       2.77202106       0.64390945
H        4.95945787       3.64367390       4.36451292
H        9.02017498       1.85031450       2.35843396
H        3.98334599       8.78358555       5.72565985
H        1.70239615       8.64240074       1.04116774
H        2.00436568       4.06782818       2.54814053
H        1.34433568       1.88410234       2.04430580
H        9.33695984       7.18273306       1.54492545
H        7.63339901       6.02275038       3.15984106
H        7.39837885       8.42466927       1.56009305
H        6.82129526       6.13719702       7.61588192
H        3.60674381       2.96768904       7.11484432
H        1.66460824       1.59197509       5.03701544
H        6.76524639      -0.11726524       1.78275192
H        6.53756237       9.27238178       4.37296772
H        3.49595356       9.07172203       4.67578411
H        5.47222233       1.93604481       0.19550164
H        1.07596040       1.92328978       3.24483037
H        5.72987175       2.56109285       6.68717480
H        1.30762422       7.94171906       8.96524525
H        6.77896595       2.45810914       5.90443563
H        9.22522068       1.21385074       9.43725967
H        6.10538244       7.35844994       0.58485752
H        2.17562270       0.92139703       2.12012339
H        0.40080547       8.69063091       9.05999184
H        3.48089790       8.81998634       8.25416851
H        5.14392519       3.33668303       2.23523593
H        0.91546869       8.53974628       0.36305249
H        8.65005112       8.31800461       8.88166618
H        2.79062152       5.98492289       3.23814130
H        7.15811300       4.56408787       7.59936237
H        8.79540539       2.61886954       4.15371513
H        1.41417956       2.48728704       7.64641666
H        1.28408110       6.16073942       4.69049883
H        0.58215749       1.83161914       4.22672319
H        4.24664307       1.95688713       2.17588258
H        4.98357821       9.32609081       6.67394733
H        5.26897001       8.12763214       0.76531386
H        8.31857777       0.23914903       3.81534123
H        3.08428001       0.67865616       1.60671699
H        8.32271004       7.92242765       7.40591478
H        7.20342302       4.91286707       2.14513016
H        1.24794602       7.70735550       2.58064389
H        5.25677061       4.93013811       2.37151289
H        3.58416486       8.77960014       3.42183471
H        9.39106941       4.14711857       3.24602151
H        7.14370108       7.34989309       7.26814175
H        7.13103724       5.90338612      -0.00118729
H        4.59815931       0.92739689       2.63129091
H        1.10578930       4.88100576       8.58199406
H        9.56795979       1.63595784       6.80707932
H       -0.10647552       7.92777109       5.42378616
H        5.26880360       4.80335522       6.10730028
H        2.53869724       8.08380318       7.17052984
H        8.00012112       7.04840374       7.96829653
H        2.68403125       8.25179482       5.00003672
H        8.31788063       8.04423428       4.39759398
H        2.78754044       4.93261909       3.83578730
H        2.92941737       1.70877254       8.71181965
H        1.96715033       7.04114628       6.96094418
H        0.59508330       4.81032276       6.99012518
H        6.78454065       3.90708113       3.67604637
H        4.71788836       7.25572681       6.79479837
H        3.91683507       1.67108715       4.41719198
H        2.50922203       7.64519787       6.05871630
H        1.26395810       0.59745693       7.53109980
H        1.72399426       8.42881870       5.22293043
H        4.13473511       1.37681484       7.94108915
H        1.70181489       6.37404156       0.68946302
H        1.41940844       0.22321491       1.61669111
H        6.22592354       1.24959016       3.17600036
H        9.27415371       5.96067619       8.64055347
H        8.50603199       3.12095571       5.93777800
H        9.02123547       5.16654253       2.53833914
H        8.15974522       2.19597936       9.39459419
H        8.87374020       4.99693155       7.49048138
H        0.68682498       0.49464992       8.57498264
H        9.21752167       8.84586811       4.86198378
H        2.15557742       0.64747268       5.91305637
H        8.78023720       9.01412582       5.97886467
H        4.88538456       5.25114822       8.24663830
H        6.76969385       9.38933468       0.55605376
H        3.45694709       7.08453226       7.20224047
H        2.20100689       4.84047651       1.21035647
H        8.62268543       3.71390986       8.46117020
H        5.76298857       4.21431446       6.80472851
H        4.66767216       9.17729855       3.40987492
H        2.05373907       1.70336831       6.67936945
H        5.34987402       1.89846873       2.79972172
H        1.36719203       7.06312180       1.67572129
H        0.23430127       5.61487436       7.53569365
H        1.53037965       3.14770603       6.43166304
H        1.05321670       0.84552562       2.77702737
H        0.61860150       3.92622280       4.54619455
H        9.35256195       9.62763309      -0.15509695
H        8.60867023       0.20877579       6.90824127
H        1.77409530       1.35661912       9.13598824
H        1.68835247       3.69739056       4.91422844
H        4.33376217       6.34725761       6.83938742
H        5.42705202       6.36143684       7.33152390
H        4.84145355       0.81424320       4.13242483
H        1.55522072       9.11982441       3.17928910
H        7.03674269       0.83901739       4.01419544
H        1.75178790       2.64971232       8.79872513
H        8.13922119       9.00735378       1.19246769
H        2.99676490       4.24712658       8.14696407
H        4.98698044       0.81215179       5.18898439
H        8.93253422       1.82320583       1.10592389
H        3.68748498       7.76345301       6.40177727
H        5.53027821       1.83530688       5.69303370
H        4.50347757       8.07194614       1.61122739
H        3.27380204       0.74037910       5.07826281
H        4.08879614       9.58849621       7.28587675
H        8.31259537       8.55756378       3.29863667
H        7.52386093       7.39564610       3.51606941
H        2.87906575       7.64946270       1.55094898
256
Properties=species:S:1:pos:R:3 pbc="F F F"
H        2.99535680       6.84024477       7.45109177
H        2.56843638       6.51312971       2.38972402
H        0.77086067       4.31713676       9.41904736
H        8.03108501       5.17130899       2.98247218
H        1.76620495       1.03858149       8.45539474
H        9.13290501       6.28931141       1.59453523
H        0.62501693       8.30539608       7.20482492
H        1.27213955       7.57800436       9.16335773
H        7.93717480       2.30140138       2.06431031
H        6.41008759       6.53930902       8.38202477
H        4.54273367       0.23978090       4.46150446
H        2.24726439       3.73402715       2.94448018
H        1.64973605       9.08714294       3.94967389
H        6.66454411       7.52675724       9.33271980
H        6.94881916       8.34504795       7.69666910
H        8.54957008       1.89940560       7.99508905
H        2.63449121       9.58335495       3.52660084
H        4.06410599       8.74520302       5.72396517
H        9.55374908       2.07167912       6.07755804
H        2.84264255       7.26415539       5.40379477
H        6.14788961       2.96227646       9.11658001
H        9.14074135       3.03030038       8.46059418
H        4.10209274       2.40589476       1.89706445
H        1.26200068       9.11629581       6.87561607
H        1.71644640       6.43027735       1.34494460
H        4.12013292       8.17031860       2.88595557
H        6.71096849       1.34897840      -0.30700451
H        3.87635064       7.62891531       4.65214920
H        8.48600197       4.31351376       3.22840643
H        1.47539997       6.54676485       9.28409767
H        4.83820391       5.60206890       2.42267251
H        2.87959313       9.11593437       6.73612213
H        2.51432371       1.99020040       9.55544662
H        0.53325605       2.23371673       3.10012412
H        1.92761219       1.91552567       7.86809587
H        5.75147200       6.03190565       9.32428074
H        0.75887132       6.05348635       0.85307908
H        5.43017006       1.06620097       1.06922209
H        0.66555828       2.80352020       2.19497895
H        3.10457134       4.12646389       0.46467099
H        3.62692547       6.51493168       5.57665682
H        2.56465054       1.17939663       1.71437323
H        6.48522472       4.02996874       3.59550643
H        2.77114749       7.60065985       9.51490784
H        8.52375031       2.99206758       1.44795609
H        2.90571904       9.20750713       5.66915703
H        1.30357468       2.45804882       8.78206921
H        3.11878181       0.94207543       5.97789049
H        5.60260916       0.83217293       8.43902206
H        1.23008537       1.47019386       2.53006196
H        5.17243671       8.09148693       6.32519960
H        7.52006054       1.89331329       0.98111564
H        2.69982481       8.63066387       4.74303389
H        5.99686098       1.44729984       2.34146857
H        7.79372025       1.49922895       5.77136469
H        8.15819359       5.26344585       5.69581938
H        4.81351233       1.29754686       6.33949232
H        9.59110928       0.36291671       9.56872940
H        1.72111571       7.24191236       2.44546652
H        4.50953865       4.79883242       2.91681814
H        2.51114154       1.70818257       2.53206468
H        3.39614511       4.72349930       8.65930557
H        6.34081316       1.27664828       5.98860979
H        5.43276548       6.53174829       4.87597704
H        5.73396206       0.40291142       5.45049429
H        0.26737666       0.23961422       7.18341064
H        6.40688705       9.27655125       5.94120693
H        8.22095680       0.82061630       0.27982679
H        0.18567221       2.16072869       1.45907474
H        7.92637014       4.15714169       0.82838082
H        4.73306561       6.28535986       6.17054558
H        9.20924854       3.76866055       9.41316509
H        0.50907362       1.02043557       5.14776182
H        8.88082695       6.08262157       8.09309483
H        4.50841236       6.12030602       4.17128992
H        7.72843695       5.97551775       1.05143499
H        2.09055114       5.99641943       7.63486099
H        8.46746159       5.23976946       1.93041778
H        4.58813763       6.86093330       2.17706108
H        6.24383163       4.94362974       8.09876537
H        7.33669186       3.54687715       1.46217811
H        7.24040270       0.47701588       0.64407921
H        0.76796442       7.34178972       8.10385418
H        6.17317963       0.33552626       7.62003374
H        6.07983160       3.89691496       0.48737609
H        0.52655727       0.99183458       1.13142800
H        3.09741235       5.33940983       0.44948643
H        2.68036294       0.78210509       8.23967552
H        0.30470976       3.76728320       7.84177542
H        5.12827730       6.64496183       1.00457978
H        8.25615501       7.66539812       7.15074110
H        4.53192139       0.47450721       1.22204006
H        6.94305563       4.64258671       1.14654279
H        4.10234976       4.98041964       9.31986713
H        3.22803879       2.79019547       8.22872448
H        5.41244936       5.19986916       5.07386780
H        2.38288307       0.80562812       0.15236312
H        6.12514639       7.96977329       4.39549303
H        3.41624975       1.56381929       9.80555534
H        6.61715555       0.70699161       6.72065639
H        4.05920458       8.70242786       4.74795485
H        8.03875351       1.47495675       8.97936249
H        7.04109192       7.15530348       4.52428293
H        8.40953636       8.90548611       9.06089592
H        5.36778975       2.78386402       6.09075356
H        4.50684118       4.06851006       0.62503397
H        5.17567015       3.26453829       2.54420900
H        4.26400661       8.36179543       8.96776581
H        9.45321560       6.99773169       0.78348172
H        1.28996193       2.50950003       0.33311522
H        7.76652908       3.61919618       5.21121025
H        8.98502445       3.53893209       6.98768759
H       -0.30313337       6.31628799       9.09485626
H        8.80517483       1.75120306       2.54131818
H        6.67529106       5.43253279       9.32644844
H        1.95629525       8.34607410       8.57313442
H        5.14632988       0.42357540       2.09510589
H        5.77713299       5.02821922       2.30322838
H        1.65365613      -0.15629742       5.56402683
H        2.05290580       8.80708408       2.34964275
H        9.07973480       3.38850665       3.85245466
H        7.69381189       8.31682968       5.34860802
H        3.95526123       8.92863274       7.01340055
H        7.29422855       1.06581569       8.05120754
H        6.10710716       3.96385741       8.27214718
H        6.73989058       2.58776426       4.17353487
H        0.69910103       1.45118868       8.33299541
H        2.40719104       6.66258001       8.41394138
H        0.76827836       5.15173912       8.68940449
H        7.64563322       4.62920332       8.55316734
H        0.23101245       1.24356198       2.70831895
H        1.02054584       6.89338160       7.09113836
H        9.49223232       0.69346768       8.09822369
H        3.77690673       3.12274003       0.59234083
H        2.88347054       2.89950800       3.18306541
H        7.07140112       5.63738203       5.48336077
H        1.54926240       2.61081839       2.97155762
H        1.00349987       7.21406746       0.96328509
H        2.83481050       2.77363396       2.15073991
H        2.94072223       8.95431805       7.97585106
H        5.22116041       3.90106916       3.95844030
H        4.34633636       5.78707981       5.35962296
H        1.24828053       0.66561443       0.29898286
H        3.98686671       0.04447926       8.38364983
H        2.75605392       9.51032066       1.39823818
H        5.01129341       2.09298849       3.84986615
H        3.44815469       0.74009073       2.02503085
H        2.57226205       8.30464554       1.61703503
H        5.10865974       6.04760313       7.73269987
H        7.25401592       8.25582218       0.62235802
H        7.47465372       6.69905615       0.01552293
H        5.65014839       1.92027652       9.48391438
H        3.38161325       0.75542587       3.28676510
H        5.37253809       8.34547901       3.10022807
H        2.25146770       6.13380384       5.70120907
H        4.92510557       1.73884869       2.83192468
H        8.66022205       1.92436135       0.21433817
H        2.19729757       0.75096601       2.59656739
H        2.68300796       3.81092048       6.63761139
H        2.54041624       3.34381032       7.44436121
H        5.91682005       1.91237009       4.42902136
H        6.58636713       1.00110722       1.56664968
H        5.93477631      -0.29763994       1.69098616
H        3.53288412      -0.24205184      -0.24262998
H        7.24979782       0.33241123       9.07568932
H        5.65144253       1.19588387       7.18485212
H        5.12037468       5.35349274       3.51279712
H        9.07133198       8.68369770       8.16618824
H        9.13546848       8.08740807       9.11809158
H        3.21411586       1.80811322       3.39902377
H        5.87243128       3.33045840       5.10225677
H        8.29646206       2.22741175       5.21451950
H        3.54213953       2.64215350       7.13703728
H        9.04436111       3.63773322       5.29532433
H        0.15687533       4.19401550       4.27641582
H        4.29856300       2.36708379       7.85655737
H        4.04228449       0.90358472       5.30418253
H        1.16660106       4.70115471       0.77047491
H        1.06449008      -0.15899627       1.30496514
H        1.83640134       8.12488174       3.58140278
H        7.86723661       6.35541534       6.68947601
H        5.21000433       4.78691339       1.51018035
H        1.38811243       5.24838209       2.21988416
H        6.78852177       3.79975224       2.59787154
H        1.63212895       6.44714212       3.25217915
H        9.04501724       3.44948244       2.14503217
H        5.29306126       6.83161163       6.86575508
H        8.10375500       3.58573747       8.90073204
H        3.38187838       3.70596099       8.85534382
H        1.54865372       4.53876209       8.52003574
H        3.33108473       2.10688043       4.73684978
H        8.74349880       0.29762292       5.33136225
H        3.16176176       8.01126575       7.09384298
H        4.96201563       9.00421524       7.69273138
H        8.27174377       8.08543396       8.27896786
H        1.86862326       8.19302940       5.68154860
H        8.91625023       8.54411983       3.32873940
H        8.96741390       7.57792282       4.17756557
H        3.39717293       1.63028431       8.18081951
H        8.73276711       8.76293659       6.35667896
H        1.39193416       3.39387989       8.25952339
H        6.98361778       2.12608194       2.93317103
H        6.19917297       7.31906843       6.95215225
H        6.05981445       2.04470706       3.21058059
H        1.98114192       7.38315296       6.99227810
H        1.89441383       9.08764935       7.64543629
H        1.36511207       7.83279514       4.51083183
H        3.99365163       1.25824654       7.06349850
H        1.46791410       3.25224566       1.07701015
H        0.59124500       8.30927658       3.91086888
H        6.57844830       2.65439796       1.36449909
H        7.82054234       6.14719582       8.10523415
H        0.27300218       5.60840368       3.87233138
H        6.56572771       4.81821394       2.87432098
H        8.07632542       0.22632106       8.34866238
H        7.81066465       5.53737020      -0.14666863
H        0.90894824       0.10450444       8.37640285
H        8.91422558       6.23799706       6.79520941
H        3.00640297       0.47048682       7.29151201
H       -0.12385288       5.13143015       6.45137739
H        3.90163231       8.46408939       8.00098324
H        8.47044849       7.08409166       3.33508587
H        4.11258268       7.26659632       6.50742674
H        2.08057141       3.80872512       9.20296574
H        6.85559702       3.44693351       6.64778614
H        4.41765070       5.78438377       1.18649256
H        4.96382427       3.21955514      -0.15134782
H        0.62461156       1.68679452       0.22412328
H        2.48397899       3.88145947       1.40962791
H        1.71197355       5.52831841      -0.25305313
H        0.79742479       8.28443146       8.78094482
H        1.33914495       3.88297510       4.08659363
H        1.33296168       0.95124149       3.77500010
H        0.57668763       4.40953588       3.09541774
H        8.54170036       9.15864468       7.48722792
H        7.77632618       0.54096442       6.93300200
H        3.15057802       0.71459842       0.82172990
H        9.22240353       5.37258291       3.00325799
H        2.31511045       5.41637278       8.44224167
H        4.69231081       0.26706395       7.09519672
H        7.06999493       0.95629245       2.76672387
H        0.65417439       0.03738642       4.08537912
H        9.81214333       2.61091876       4.17423487
H        2.98468113       2.90574217       9.33751774
H        9.00186253       8.97115135       0.76277882
H        1.11176288       2.93150234       6.63809443
H        7.02138329       1.89690804       5.15615177
H        9.65745640       5.29537058       0.47792688
H        3.72568393       0.26908410       6.41306353
H        6.67080450       1.48566604       3.78002429
H        4.71391010       7.84773493       5.42247152
H        5.05210066       1.30915630       5.34614420
H        7.55357075       2.62109470       8.38409996
H        0.57832348       0.24204110       2.20224738
H        4.31981802       4.96751499       4.31607962
H        0.70727587       7.00868750       1.96607411
256
Properties=species:S:1:pos:R:3 pbc="F F F"
H        3.62162781       7.12351179       7.84707737
H        8.96311855       5.69293976       0.32468846
H        0.75367641       3.79977560       8.98991299
H        6.86961985       4.97959232       5.72921181
H        4.16646290       1.80742741       8.56121159
H        8.93385410       6.11854744       1.98020172
H        3.77910233       9.20826244       8.44748211
H       -0.40270936       7.04750061       0.24276619
H        5.07413197      -0.09218418       8.51429176
H        6.14502525       6.66499138       7.91571093
H        7.32306290       3.15752959       6.69384623
H        2.60955524       3.62926793       2.42874193
H        2.73572588       9.23110485       2.89878559
H        6.55564308       9.61952305       1.30746782
H        7.53546619       0.32816520       7.86261511
H        6.73986626       1.35857153       0.33049196
H        4.00765610       8.22068501       4.73906946
H        2.87129402       7.61528015       7.25706244
H        3.21832323       2.15161681       5.11055994
H        3.76861596       6.98673677       4.93613958
H        9.44514275       2.43316913       9.80687141
H        8.91905785       1.96064758       5.76779509
H        5.35408878       0.65798986       1.38807225
H        6.80915689       7.72252417       5.19055367
H        1.71541083       6.66179514       3.90033007
H        4.43545675       8.37933254       0.57021666
H        5.13799334       2.52425456       8.38322258
H        0.62559646       6.73383856       4.26624203
H        0.92493743       1.96324551       3.94011474
H        1.79216027       5.66138268       0.10925914
H        5.04847765       7.12513256       5.07335281
H        4.41844845      -0.32511854       4.78194714
H        2.29607058       0.56180561       8.99369812
H        0.61361492       3.50115752       1.28782046
H        1.73189735       8.80284882       7.28689337
H        4.74048948       6.14749527       1.14270818
H        6.17468500       7.04146051       0.62585640
H        4.48325109       4.64687729       4.18502855
H        2.62330675       4.69873428       7.15531921
H        2.33170390       0.99639374       2.26763272
H        4.04190922       8.61533451       6.12661314
H        3.59941959       1.51714909       0.03289951
H        9.62509537       3.60769367       4.21565819
H        3.70468068       7.36783314       2.62088990
H        9.07809448       3.59838247       3.22833967
H        5.11822510       2.03854132       4.61314487
H        1.10832822       0.40559837       6.49973965
H        2.14850688       2.96565700       6.01884413
H        2.73380256       2.24944425       7.80129671
H        0.95720708       2.37723470       0.84152120
H        3.22005439       5.86018801       5.48933744
H        5.95927668       2.57143211       7.63189650
H        3.10857201       7.58483458       4.30981159
H        4.76301861      -0.03485955       0.11038164
H        7.88886595       3.57367826       5.70259380
H        2.81957316       4.53924322       5.33589649
H        4.87965584       3.16289926       5.33041811
H        2.02770782       0.28661296       6.80172777
H        0.47496787       1.48210371       2.38528705
H        3.71988869       3.09602666       8.47913361
H        8.63417339       1.37382698       2.80685902
H        3.34060836       4.67980623       9.52315998
H        5.68157911       3.96247172       3.65929627
H        4.15575933       7.32362223       5.87449503
H        6.51351261       7.69765472       8.23162651
H        9.53100586       7.92628622       5.60998297
H        7.57731962       1.00043774       4.86260176
H       -0.03315061       8.20685196       0.10561945
H        1.36158264       2.64542294       9.33100414
H        8.47261810       2.16354585       6.69695377
H        2.06101584       7.01097012       7.50763416
H        2.20435619       2.94927764       0.43907255
H        6.79046059       1.89978147       5.23619652
H        7.05639982       7.36851597       6.84934664
H        3.71443510       8.51082039       2.76372981
H        6.89709616       6.25781393       9.74504662
H        2.72340465       6.21379137       8.86430645
H        0.10493943       4.48152924       2.67926192
H        2.12074018       7.70941687      -0.55512977
H        5.12471581       6.71423864       0.41179913
H        7.08003044       2.36819339       8.36458492
H        7.08264589       8.51854610      -0.32535070
H        1.10677445       8.39333439       9.02297115
H        6.16039133       9.03154278       2.40991211
H        6.93807507       5.40232420       2.50054216
H        3.11377430       2.18530130       0.93332458
H        3.14480948       3.89809060       1.00027907
H        2.89940786       8.54987526       5.43055487
H        2.17462826       8.11182117       4.60800934
H        7.90590668       6.08099699       1.72006786
H        7.09973478       8.26844692       6.48762655
H        4.74299479       9.07942581       1.22699249
H        7.70289278       3.13957238       4.34800339
H        2.96906519       5.41486502       2.98181581
H        7.79236889       3.40845394       0.56814718
H        6.18034458       0.89587116       6.73919439
H        3.40341163       8.75685883       7.17755651
H        5.49451780       9.13018322       4.06748676
H        4.75443077       2.85928726       9.27296638
H        8.14748192       0.93740118       6.06400633
H        4.80913353       1.13495064       4.09864235
H        9.23895931       1.08540857       0.08424889
H        0.09374548       5.08166456       5.49430037
H        7.81780624       0.99666941       9.20889854
H        5.98619795       5.30876064       4.67883110
H        4.77949047       2.07544494       1.57950008
H        4.33781385       5.14688587       2.23381495
H        7.53668118       7.18134069       1.48218369
H        1.54888153       6.25673723       1.38703203
H        4.72439241       2.54892159       7.34606266
H        4.87946701       5.63129616       7.76181269
H        1.55341423      -0.13346012       8.65895271
H        8.18592739       5.73575783       8.82998943
H        6.82840824       3.55989122       2.42589664
H        5.84198713       6.36114550       3.24798942
H        1.27159762       7.61945057       7.32822943
H        3.92998290       1.30410969       2.44255662
H        6.56979990       5.64050055       3.59618640
H        8.16356182       6.70902681       5.63638067
H        0.13626596       9.69530678       3.12428451
H        0.32140100       3.32775259       8.04922867
H        0.45734313       4.50968552       4.76657581
H        7.22069836       8.79503441       8.23664284
H        5.80029821      -0.66320920       7.78351879
H        6.74516392       3.68159819       8.25433064
H        5.57905531       3.79748034       2.57623005
H        8.99111938       8.72977066       6.37090063
H        2.98141527       8.32767010       8.45631599
H        5.20721292       6.14653540       8.79685020
H        3.99289608       6.15144968       7.65671921
H        8.74690342       0.89519423       1.37771499
H        2.55213308       5.11870432       8.50758171
H        0.23980907       7.78000546       8.74915600
H        5.31584454       2.35886121       0.61781490
H        3.85677099       2.91280127       5.11287832
H        4.94668484       3.64927626       6.31782627
H        3.00663877       2.25777435       3.68594146
H        0.19619805       8.73438454       2.69604349
H        3.65053010       3.23851132       2.76399398
H        4.29337549       0.59458667       7.77672577
H        3.28622651       5.30115747       4.49968719
H        3.13271570       5.85998917       6.98433447
H        8.71057892       0.34049103       7.85888386
H        4.86372471       0.88230884       6.24738693
H        2.86628270       8.21899700       0.62022442
H        4.70741892       3.49568629       3.36414766
H        4.57035351       9.38977051       3.21272349
H        5.40230370       7.69284821       1.03056228
H        4.48991871       1.57795310       5.30364227
H        9.61002254       7.22512197       1.89385962
H        9.03430653       6.41322136       7.88119602
H        5.92865038       1.59966755       2.08323646
H        3.38778353       8.85591793       4.05038214
H        3.84723449       8.43437672       1.44618154
H        0.55022550       6.17733812       8.99177837
H        1.46218991       1.49592578       1.82168579
H        6.00591040       1.33712053       0.98886389
H        6.14284229      -0.34492087       5.55192041
H        2.99841380       7.10278988       6.37530041
H        5.89836121       3.04473472       9.19799614
H        9.52093887       1.95725846       4.63231182
H        7.59657717       9.41495991      -0.10328153
H        6.33507204       7.17787409       2.19420385
H        5.56357908       7.89729404       7.51775694
H        9.43157864       2.28639817       2.25698733
H        6.62675095       9.15822315       6.93915033
H        5.50312281       7.52306032       6.17435837
H        8.37067890       7.82024717       6.43156290
H        8.86752319       7.56558752       8.13785458
H        3.66962075       3.43758631       4.07477808
H        7.06752729       1.49648070       1.27478325
H        9.32404995       2.74806547       6.64505768
H        2.76642442       3.92951226       8.31471634
H        4.09958935       7.16586256       1.23999894
H        2.08266425       3.18842936       3.37859869
H        7.03547621       4.92625284       4.19389439
H        3.40762162       0.05114319       6.34479427
H        8.64433956       6.41476679       3.22781038
H        0.26282519       0.82327580       1.47542989
H        1.84338009       5.55611420       5.15888834
H        8.75257874       5.46899271       6.60597754
H        4.74968243       7.75711155       2.36113620
H        1.12485242       4.84215498       2.43912625
H        6.42836046       4.77437401       1.90895367
H        1.08390045       7.63113356       1.97049558
H        0.54936820       3.14752102       2.99480772
H        2.81722069       4.03429317       4.49024677
H        1.87846494       2.99848580       8.54354382
H        4.92543221       4.89855957       8.74216747
H        0.85624033       6.22167587       7.94820976
H        5.25198746       0.70150220       2.62888718
H        8.57395935       0.31294280       3.14065146
H        4.47235632       8.09143448       7.71483374
H        5.89559937       8.98678780       8.95212746
H        8.32142544       7.00779247       7.29302454
H        2.36416054       6.93283033       5.54592609
H        7.89148283       8.90574074       2.52554226
H        0.76000464       6.87356806       6.34797716
H        5.45018911       1.69298887       7.27401066
H        8.19927120       9.09874153       7.24741220
H        2.32767367       3.36350417       7.14289045
H        7.88855076       0.32403857       1.00863707
H        7.90794325       8.21468258       7.94269896
H        2.80020714       0.44589663       0.52488148
H        1.54151237       5.14686823       7.84923697
H        1.65228581       7.93286276       6.48449802
H        1.25618315       7.60705233       3.98649120
H        1.39344573       2.63165355       7.55700779
H        1.33715343       3.09978914       1.93275595
H        2.47377872       6.72062826       2.67656779
H        6.72893667       1.10701227       8.64981365
H        8.02209759       6.07565880       7.83879757
H        1.83560956       5.44351339       3.76165628
H        7.88596821       4.80707884       6.34054852
H        7.91811609       2.04084158       5.28101206
H        9.17238331       8.63730240       7.55981779
H        8.68984985       1.21603703       7.02658749
H        7.89693213       6.20716095       6.62484741
H        0.06914324       0.36470124       6.54833508
H        1.71716976       2.06231499       4.69092703
H        4.68316507       7.77247095       8.82422161
H        8.18510532       4.42574501       3.25794125
H        4.48812580       9.46385098       6.82587767
H        1.52459133       3.96712232       8.04186535
H        5.98141575       5.22397470       6.81844854
H        1.21098268       7.24224424       8.90413284
H        2.46511579       2.97255945       4.87891102
H        0.81746316       1.16452730       9.14136887
H        2.60748172       6.29885483       1.74271679
H        7.41005278       5.44324970       0.57111657
H        9.42028236       8.95270920       8.55015659
H        0.61657888       5.57607603       3.21038842
H        4.54965639       2.25487518       2.70301175
H        9.07655811       5.58649111       2.86138558
H        7.36527061       6.94023418       8.34667206
H        6.87979698       2.18337965       6.62002611
H        3.57034087       9.01536083       0.04826387
H        1.03972363       4.61466599       3.70967460
H        6.38091230       2.46016002       1.04451954
H        7.11466265       0.61280203       5.66514111
H        7.37568235       0.69156468       2.48551083
H        2.18569803       7.70337439       3.16452551
H        3.15111113       2.82138371       6.03658819
H        2.85482931       2.29445529       9.07068062
H        7.75049305       2.24306178       3.61705065
H        1.21526456       0.39770088       7.67059898
H        8.93995094       3.94751501       2.06545472
H        1.27157891       4.62307501       0.42359594
H        3.31691527       1.05865932       6.94071913
H        6.14714575       2.18353820       4.48163843
H        5.30242014       8.79365921       6.39508390
H        5.85066271       2.34443951       5.48884296
H        8.96278763       2.98103094       8.58424187
H        3.12664819       7.48906088       1.72750020
H        4.94492149       5.82757902       4.57379580
H        0.42491451       5.48840427       2.03923464
256
Properties=species:S:1:pos:R:3 pbc="F F F"
H        4.94110012       6.88632345       7.29224491
H        5.91041279       6.29530573       7.17419672
H        1.86259615       3.79572773       9.54897881
H        7.48216105       6.18709373       6.09409046
H        6.75755739       0.96970737       8.86011028
H        9.07149792       6.68958759       2.51808095
H        5.97448206       1.84614217       8.81916523
H        7.99198055       6.32410288       0.09654302
H        3.87228680       9.15897083       8.27355957
H        7.56767273       4.09199142       8.67788982
H        9.46245861       5.55564880       4.98298454
H        5.22678089       2.39098477       2.53478241
H        1.21059632       8.55136395       4.29990482
H        7.09861803       2.06711125       3.39542460
H        9.01728725       0.66909862       7.65618134
H        4.02502918      -0.84535182       6.60895395
H        4.37659693       9.35478687       4.77612352
H        2.96028018       6.68652105       8.72068310
H        0.65656745       1.71554625       6.46279955
H        2.36744833       5.36094809       4.12113571
H        1.01364362       8.86224174       9.33022785
H        9.81348324       3.37556672       8.34151173
H        6.88895941       1.30648065       0.97516596
H        5.06746531       6.34695292       5.52289486
H        2.19733262       4.32062674       5.77829695
H        4.92208290       0.07225341       8.29982948
H        2.79689693       1.47197902       8.01394844
H        1.00692010       1.41741908       5.26510525
H        5.35450363       1.15539229       2.82838774
H        2.15251684       9.11555481       1.29132295
H        8.07260323       7.18716097       6.70559263
H        2.42357326       0.63706636       3.28949761
H        3.16911435      -0.29422879       7.31127644
H        1.17017555       2.94102430       4.38771963
H        2.84794712       8.65785599       8.27157593
H        5.58190060       6.80813265       9.16479492
H        4.88888550       7.79790783       8.52139759
H        4.62316418       3.78255010       5.95394135
H        1.44668007       3.32466125       8.64473915
H        9.40090084       0.43332323       2.32677579
H        6.60022640       0.41209865       6.05941343
H        6.79396200       3.29732966       8.43919277
H        1.69476962       4.75357342       3.60495782
H        5.25647974       7.13484192       4.08670664
H        8.07034779       0.22594446       2.97396731
H        4.79839182       1.40138793       3.80878019
H        9.47850227       0.54542142       5.41974306
H        2.74137092       3.66625190       8.70053387
H        3.49630523       2.97195411       8.15602875
H        0.72999161       3.38584995       2.77714062
H        7.11263943       4.69980192       5.87080479
H        8.24912643       1.76311481       7.67463255
H        3.88886833       7.41955280       7.10213900
H        6.37432957       8.74448299       0.67876226
H        9.23734570       5.13095570       7.61929417
H        3.30547404       4.30786037       4.06662750
H        5.11595726       4.72881508       4.55728054
H        3.26355600       9.15912342       3.44892883
H        6.85095644       1.64662516       2.25055695
H        5.35141134       1.17555833       8.45506573
H        5.33687115       0.29899478       4.73089647
H        3.28133869       5.63828182       0.76204485
H        5.22057819       3.78112316       4.82414913
H        2.49438334       6.44111347       5.15938234
H        7.50486803       5.69368410       8.86402798
H        8.65684223       9.06218529       1.79030871
H        6.73650265       2.03086615       4.89976358
H        8.43160343       0.76550519       1.41593957
H        0.95800298       3.61182451       0.86931717
H        9.40559196       4.29535675       5.27259254
H        0.45739302       5.50335789       8.08495808
H        5.59382772       5.34751129       0.36276871
H        8.84367752       3.89001727       6.41256142
H        4.44109249       5.18711281       7.63493538
H        5.71638155       7.91889906       3.26263380
H        6.26749134       6.05622435       1.22438836
H        2.79635859       7.04757118       1.01443136
H        8.21757317       5.09063530      -0.31548062
H        2.01523256       5.54376411       6.82817984
H        3.73650169       6.80423260       9.50233173
H        8.54151249       2.81751657       7.97169065
H        7.43920183       8.73978329       0.08559585
H        1.99592805       7.04057980       8.68589401
H        6.66191959       1.64657128       7.72622490
H       -0.41586998       6.21563721       4.09138870
H        4.45505857       1.25665450       0.53913206
H        4.17564440       5.10752726       0.41834015
H        2.63892484       7.44573689       4.58439112
H        1.34979248       8.13573933       5.90723944
H        5.69999933       1.89459038       3.90097356
H        2.53551555       8.46109867       5.70982647
H        4.40962219       0.56464177       9.06800079
H        6.53800583       3.27162051       3.48566508
H        1.55404425       4.71171761       4.63248539
H        1.24515569      -0.01045561       2.16129971
H        7.04345751       0.63025308       5.00175953
H        5.02589798       7.67403936       5.80628014
H        6.92006683       0.28495064       0.82738388
H        5.00373697       4.29146671       0.69287449
H        7.91153097       2.15309143       6.59265184
H        3.86978507       1.40826988       2.86446714
H        8.34442329       8.29034805       9.25943375
H        9.70447063       4.37717628       2.51890039
H        8.82896614       2.68191648       0.28700095
H        3.91386247       7.63895464       4.67859650
H        7.57441998       3.35578752      -0.21080776
H        3.77099729       7.35040283       1.14324665
H        6.64439201       7.62824059      -0.21436796
H        1.28607869       4.95645380       8.82171822
H        7.18442440       1.71143472       5.99424791
H        5.34502602       5.67665911       8.59502697
H        1.31431234       7.48394203       7.31222010
H        8.00199986       5.40118122       0.98649776
H        5.94019318       9.22702503       5.40413427
H        3.40238667       6.45000792       4.36191559
H        8.76446819       8.09718895       7.87207174
H        8.03184891       1.31773925       0.12066057
H        1.69919479       7.11978483       5.31816626
H        0.39750829       9.05945301       4.94982147
H        1.84463513      -0.01317754       7.14003420
H        8.67376137       3.79521227       9.14781857
H        8.09232140       4.88170052       2.72518039
H        6.05342197       0.44372058       7.92392731
H        7.29684925       9.19118595       7.83215141
H        3.62968612       2.78903198       9.34727764
H        3.74577332       5.34857368       4.71111441
H        8.12744045       1.22562265       6.03102636
H        1.09020710       0.62031609       7.17233896
H        7.24547863       2.15353179       8.79118347
H        4.61638069       6.28621197       9.05648041
H        5.10678101       4.63520050       8.37060452
H        3.31831169       5.77642345       9.11693573
H        0.13558993       5.29529762       0.61422783
H        3.92946482       4.04494715       7.76704788
H        3.95837092       2.79281330       4.08673811
H        3.78912783       2.85869241       6.58784199
H        4.49524736       1.30858386       4.99154520
H        8.43365002       7.95233011       4.13596392
H        4.14001894       2.38843799       5.13881540
H        6.29382133       0.83506006       6.94830179
H        4.10034943       3.56807923       4.85559320
H        3.82572269       4.09198999       9.42716503
H        8.97176170       6.77030087       1.40104282
H        5.20899343      -0.36097687       2.40035510
H        2.29091024       0.80935282       0.82116437
H        5.07386208       4.29442978       2.50450659
H        5.40441847       2.00719976       4.95151806
H        4.65790892       8.74782085       9.08974743
H        1.50782681       6.11463165       2.80450320
H        1.23739338       0.88736928       4.40509939
H        8.22154808       5.70766354       8.17588997
H        2.72183537       8.60580635       2.23262644
H        0.56794959       5.63488722       3.10501623
H        4.01005030       8.00065613       0.30560851
H        0.48870680       4.35116196       7.86118126
H        8.10163593       2.00129485       0.89890784
H        5.28109169       3.41257572       1.46697831
H        8.06780910       1.10868096       3.88578010
H        2.63375592       4.31036663       7.37035036
H        2.83630514       4.26978159       1.18826127
H        1.38111126       2.55973554       7.09091997
H        9.20508575       0.41552597       8.68142986
H        6.67472982       5.53540087       2.41969323
H        7.98558760       8.45019245       6.96081591
H        0.19098444       2.01518869       4.58270407
H        7.29834032       0.70194829       7.34995461
H        6.39427614       2.52051711       6.00006580
H        6.06127834       6.39884806       4.28278255
H        8.52154160       5.99147081       7.23974800
H        5.00530529       2.62667322       4.28819656
H        8.30823708      -0.27123386       0.92126840
H        9.12186337       1.96877933       8.11364460
H        2.65188432       4.88532495       9.22728729
H        3.94738126       7.20529890       8.05373383
H        4.86957645       5.87500620       3.58641768
H        8.65119171       2.49966884       1.71749580
H        5.39661217       8.33083725       6.60209513
H        9.56474113       8.90000343       2.94398093
H        1.08061659       7.76299191       9.11374187
H        3.60126972       5.67817259       5.67210484
H        9.43458176       5.10803795       9.03671741
H        4.77744150       7.33456421       0.23790705
H        3.77166295       2.93184161       1.67648160
H        5.79277372       3.31342077       2.78502154
H       -0.13182727       8.31876850       0.13596927
H        2.18896341       3.40445447       2.87296391
H        2.90795088       0.98418868       2.35006332
H        0.70615393       2.18682981       8.30483627
H        3.26298928       6.40784693       1.70957017
H       -0.14103404       7.31337738       8.07439327
H        2.92230058       7.42236853       6.06380510
H        8.37763691       2.03804278       4.43159199
H        1.70383179       5.30042458       5.61521196
H        7.89915848       9.73090076       9.13811111
H        7.21552038       5.62029791       4.79665756
H        3.20992374       8.14834309       7.32748032
H        6.10878658       7.02787352       1.57938218
H        7.56167030       8.76860905       6.06372643
H        6.07514477       1.85219741       6.68983459
H        8.48393154       8.98318958       8.05079746
H        8.99878025       1.39678800       6.57901192
H        6.08091402       0.99873626       3.56900549
H        8.15841389       9.59371471       6.60849190
H        2.52816343       0.18215497       8.29818726
H        3.58278203       1.96441102       7.14209318
H        1.46570575       9.78032398       6.12104416
H        0.43084940       6.20678043       1.97663593
H        2.22486210       8.83406353      -0.16687237
H        0.95063150       1.78255141       3.79255557
H        5.64713764       6.97110987       0.69387537
H        7.83541584       1.13705921       8.50044250
H        8.91579533       3.78136086       7.57859612
H        1.67941380       5.18817234       2.28802729
H        7.16487741       2.93191338       5.40820265
H        1.22511613       3.66003036       5.58390570
H        0.55824238       8.02907562       8.00036621
H        0.28114945       9.43104362       7.08114052
H        8.96564007       6.59882927       5.39016390
H        0.89484626       0.48652551       8.37401199
H        1.93572390      -0.00993392       4.65749073
H        4.22751999       8.28933048       7.66692400
H        6.56898022       8.16519070       6.94301224
H        4.92201042      -0.08808345       6.46155548
H        1.30782688       6.32949162       8.15514755
H        8.11981583       4.94264030       4.64963341
H        9.31688881       6.84105349       9.23436928
H        0.59869486       0.46227589       3.19929171
H        1.96150184       2.35672617       0.09639564
H        0.73199552       6.11353350       4.44107389
H        8.13058472       6.94712257       8.38772869
H        2.14791560       8.06555748       7.87079144
H        0.53649956       4.98829699       1.47536683
H        3.64373922      -0.16816291       2.12390685
H        2.83778095       4.75248528       2.19863915
H        7.58345127       7.94078445       8.00766945
H        5.08361244       0.81389403       7.17463255
H        3.30773187       0.65323669       8.76987934
H        7.66030598       3.49933028       2.90645027
H        9.27076054       1.32230997      10.01376438
H        8.06088829       3.06676483       6.21507359
H        5.64627409       4.88625288       1.78514099
H        1.52267694       8.12885094       0.53024876
H        2.90719795       5.15103769       7.87810802
H        6.10384941       1.70677793       1.58127475
H        9.80466843       2.59077525       1.67400050
H        3.62918520       8.08220005       8.54323578
H        7.97818136       1.73355651       2.04824138
H        0.32523274       2.99595737       9.63676167
H        4.33628464       1.97436798       6.46220684
H        5.98036051       4.72237349       3.85455561
H        6.18425608       9.30702591       6.94721937
H        5.17829943       4.60216761       7.32015562
H        1.29644060       1.17818916       2.82534361
H        4.48161936       6.50660896       1.10152888
H        6.25109720       3.20671749       5.20414639
H       -0.11011799       3.64092469       1.51702273
256
Properties=species:S:1:pos:R:3 pbc="F F F"
H        6.26340532       6.91227627       5.02484798
H        6.87922335       7.52112627       5.77721453
H        0.15801282       3.12120605       2.93281198
H        6.98544502       6.10895109       4.92371178
H        7.15058899       1.76255548       8.06315327
H        9.44862270       5.34897661       3.54987788
H        4.83048487       1.16319466       7.82724237
H        7.01755571       7.28251696       2.83944821
H        4.11983061       0.37008038       6.78137779
H        4.91457510       5.71354580       0.69080609
H        0.34033826       5.51118994       4.49637985
H        7.06701660       4.44530821       9.35440540
H        0.87004596       7.83111143       3.16912293
H        7.75744677       1.62078667       0.37973642
H        8.92056370       9.17094707       6.27939510
H        2.77732754       9.02457714       2.23227143
H        2.64088941       7.05967474       3.81773925
H        4.19726038       4.67421627       8.90692806
H        8.20038509       1.18983746       5.47052383
H        2.88304138       2.02222753       5.71168566
H        1.23457551       8.99254990       6.87655544
H        9.09862518       4.73939991       8.54072189
H        7.59536648       3.18496943       0.17485100
H        5.88316250       1.32099319       3.46007037
H        6.38996029       5.26253033       7.94457054
H        5.03581095       9.70740700       7.44503832
H        2.02974653       0.99151880       8.38064289
H        2.34366202       3.50610447       2.40550542
H        7.16112566       3.61042857       1.15835917
H        1.84464216       8.09691048       3.93335032
H        1.26023865       4.89391613       5.95893526
H        9.23431301       2.07786274       4.56232882
H        1.33084595       1.24398112       6.32866049
H        3.30355835       3.20434523       3.35200238
H        5.59938288       1.51563120       8.70231152
H        7.53720808       6.11301184       2.93024087
H        8.67822742       7.66304111       9.26779175
H        3.90407968       2.65637851       4.10825777
H        1.18118405       4.86301088       9.68390274
H        8.59507942       0.93110079       1.93035090
H        9.22202015       0.59996521       6.85466766
H        9.84324169       2.22111487       8.67750168
H        8.05907154       4.71307993       4.58097696
H        7.82368231       8.79943275       4.24854279
H        8.99711514       9.33964539       2.86434674
H        6.80442762       0.46369952       4.82280588
H        8.51378918       0.89246905       3.63346171
H        2.90317202       4.12402487       6.05053520
H        4.57470942       0.68459255       1.03497922
H        2.85254955       3.08809042       4.85327005
H        7.19980907       4.41140509       7.13853121
H        9.37753105       2.62312722       6.99420214
H        4.27149582       7.76942682       7.66065741
H        9.20698643       8.01054955       3.90282631
H        9.52045059       6.06194973       5.52852297
H        3.67584920       3.65019798       4.69114542
H        5.41130161       6.35941744       1.35008860
H        0.27221957       0.41809827       1.80003893
H        8.00729656       8.42919731       3.29024506
H        5.44437265       2.91535830       9.21439648
H        4.44050598       8.08638477       5.31235218
H        3.03053713       6.24086332       1.27181280
H        5.49625492       2.94404292       5.55042410
H        3.02617407       5.39287806       4.37085295
H        4.67567730       3.71640205       5.40015793
H        3.76459122       8.92445278       3.83160901
H        7.84105349       0.58315760       2.61477780
H        7.09247637       1.14165294       9.37591267
H        0.89573610       2.97441053       1.12662590
H        1.20825338       5.17117882       7.67587471
H        8.61398888       4.21283102       1.42006087
H        2.89711070       4.67607069       8.57672596
H        7.73351336       4.99605274       5.64582205
H        5.91449261       2.39077044       8.01170826
H        8.70423222       8.30475521       5.45993567
H        5.76786137       7.68859148       4.11306334
H        3.16646647       8.12700367       1.52412701
H        7.80838203       5.37895107       6.84600115
H        3.44307709       5.05680799       5.96661615
H        3.66151237       8.54660511       0.51830685
H        0.41097221       1.66514039       7.49723196
H        6.98000574       9.81015396       1.53341806
H        3.61055017       6.98186731       0.72388083
H        6.20168543       3.63939977       9.52445316
H        6.45458889       6.30653238       5.78572083
H        6.61599445       1.09970880       1.94175935
H        4.82834196       6.63717508       3.45329309
H        1.10362828       5.93654203       6.53691673
H        8.20991421       0.49551126       4.47395372
H        8.55010033       2.06830716       2.77465391
H        2.29297352       5.50253868       6.21468735
H        4.89592791       8.05167294       8.41023445
H        1.80070031       2.26318932       0.25631705
H        8.78394985       4.79667377       5.59852457
H        3.42766428       8.23409462       3.01016593
H        6.43702841       9.24371719       6.34181118
H        7.54307365       6.54047251       5.78316593
H        7.17026138       2.30232835       9.26869965
H        2.69118953       5.04791451       1.07513297
H        8.68002415       3.29079485       4.86172771
H        5.71226645       0.83721364       1.19628990
H        8.43468571       9.04770279       1.14073205
H        9.36558628       4.03058004       4.78691339
H        1.07151496       3.42274308       8.16076183
H        4.13194704       7.28635168       3.18062115
H        6.82699108       5.82825661       9.17159176
H        4.57092190       8.56168365      -0.20838894
H        6.92627335       6.41750240       1.85088170
H        1.23840702       4.38907671       2.15437698
H        8.89555454       2.73516130       8.23466587
H        4.02719831       6.76996517       7.32836771
H        1.85904992       6.22474909       7.18390894
H        8.78633308       3.51117778       0.12769268
H        3.96905780       4.79142380       7.13069010
H        2.50661421       6.47267056       5.10201025
H        1.26236570       7.73905373       8.35571384
H        1.27878451       1.34150231       8.99760532
H        0.97777277       0.11610863       4.03046179
H        0.33683035       9.07180977       5.76929235
H        5.15711212       2.15532327       4.90023994
H        8.29173565       4.19463396       8.77512550
H        9.43611526       2.82693076       0.70748878
H        5.17011452       7.19874430       7.69045639
H        7.93416739       8.57428741       0.20059286
H        4.82792521       3.97950864       8.22665215
H        1.65017867       3.81939340       5.71629810
H        8.07918167       2.55703259       3.71636271
H        8.65423393       7.98513603       8.19838524
H        8.07429695       2.00292969       8.31950855
H        5.38568878       7.62338209      -0.06281498
H        1.96665537       2.66512966       1.98576474
H        2.65176249       3.57144427       1.22794282
H        1.50494206       5.36621857       0.92945975
H        2.90568042       4.38830185       9.75966072
H        4.90303850       1.55279267       2.25724268
H        4.41268253       5.23805428       5.12661886
H        7.66209507       8.91822433       6.01358461
H        0.37813994       1.82019877       5.65226173
H        4.20910454       2.94931984       2.79756904
H        5.53563499       0.28201520       5.82863903
H        4.58318853       3.34873080       4.38591242
H        1.12869477       3.19773054       2.57457113
H        6.52274275       5.28432989       3.54854798
H        1.85047841       5.76293516       3.97103167
H       -0.02710522       1.93311512       1.69984961
H        6.54585075       8.95471096       4.95266628
H        7.98760271       1.20256150       7.50614834
H        3.87182093       7.95385504       8.74466801
H        4.11370802       4.68345785       2.83278346
H        4.40616894       1.93206298       3.59560084
H        1.80871713       7.78543282       9.30137157
H        9.58683681       9.29630089       7.51131105
H        6.65069151       5.31607294       2.04486442
H        5.17130613       9.58434582       0.26850060
H        9.10808468       6.60037613       9.08276081
H        8.08793259       3.20258117       8.68390656
H        5.78799820       3.37441325       1.62400651
H        6.59054184       4.02678108       5.39105368
H        2.56225634       3.28485799       6.46902704
H        2.53657746       2.52944851       3.06120372
H        2.44001603       3.91353035       7.51747084
H        8.78244591       1.36221778      -0.10035470
H        5.20254755       4.76472235       3.71200824
H        6.52115345       1.07837796       7.25760841
H        0.49159628       4.30196428       3.82485151
H        9.07805824       1.73268783       6.32341719
H        8.38654327       2.47178078       5.90556479
H        8.46636868       6.88159752       6.68673563
H        9.03988743       6.11755466       7.88479233
H        5.29211187       2.44193673       3.92939925
H        7.55703020       8.20486259       8.23948669
H        3.78257298       0.85708797       7.96041775
H        1.47568059       4.07554293       1.03526306
H        3.38384175       6.74789095       8.93720341
H        2.26700640       8.24843407       5.67239952
H        0.65473908       3.09975934      -0.17725028
H        8.07748032       7.95862770       7.35122108
H        8.00238514       6.49791956       1.21534860
H        1.53099525       5.69372463       8.59032440
H        0.83032840       6.65176010       1.59105420
H        9.53832150       3.47803926       1.82196391
H        6.08332157       8.45117092       8.94540787
H        0.80832493       1.91119170       1.10959566
H        4.74061394       3.86237359       3.01118803
H        2.94721103       9.72454166       8.20504761
H        3.05396247       2.13972664       4.33295345
H        2.38308930       7.78214502       0.70517093
H        2.49449778       0.34218481       9.15202522
H        2.05928898       8.09011745       2.56553912
H        3.79235673       6.13784170       3.55389261
H        2.34031463       4.93343115       5.30665636
H        8.58011818       2.96000242       2.13799906
H        0.89946419       3.16315365       7.17635345
H        9.12745667       1.54668629       8.21633339
H        6.29504681       3.35769510       3.82494235
H        3.84702086       1.72395384       9.42967033
H        6.13307762       9.35953617       2.87564635
H        7.81088066       0.90581352       6.44065666
H        6.73809290       0.53302348       8.31208611
H        8.22534657       0.32451171       8.54666042
H        6.05232811       2.01865005       6.25858450
H        5.21307898       1.64494812       7.04296303
H        8.96857357       6.54079485       3.25730634
H        1.28882599       7.21174097       7.04201603
H        2.41443706       7.95385027       6.89759302
H        0.45248705       0.72600329       5.97594881
H        1.50951982       5.31830883       3.04479885
H        0.59123635       0.72685724       8.10112953
H        1.65230846       0.32029575       2.62820840
H        7.00576687       7.52163935      -0.05835569
H        6.78541851       2.37602377       6.94386959
H        8.24804115       4.32507372       6.57394934
H        0.38911217       7.38436985       4.68390274
H        5.49427414       5.12732363       5.27841091
H        8.57502842       4.48296452       7.58906746
H        2.17256784       8.43039513       8.47185802
H        7.89587402       9.25947571       7.04223633
H        2.47087622       7.09880972       2.57163954
H        1.51119471       9.49391842       6.05376196
H        1.05012393       0.49024865       5.02464437
H        4.13892078       7.32403612       9.47769165
H        0.22470137       4.89176178       6.49427509
H        3.98568249       6.55821609       5.45568705
H        2.63697243       5.75241947       8.94724083
H        8.21542263       3.44217229       0.96614480
H        2.60096765       6.72678852       0.41949067
H       -0.13036568       2.03175402       3.34656668
H        3.99536729      -0.19848315       8.66941357
H        9.01321888       7.25607347       2.38561964
H        7.43338585       3.01806951       7.83826447
H        3.77057195       0.33893973       4.35603905
H        1.90676355       3.26651001       3.74392724
H        5.13624334       2.81469536       0.73404431
H        2.12017155       4.06098795       4.75051641
H        9.26937771       9.13626957       9.55518246
H        5.30490875       8.21979332       7.23476696
H        3.16373777       1.45997214       6.76774549
H        7.44473982       4.78575277       1.14564109
H        0.12590636       1.98326194       0.20166872
H        6.80812550       6.02090168       6.90905380
H        6.10476160       2.44301867       2.28866243
H        2.44111490       7.34252071       8.09958076
H        4.90531206       3.18850207       7.15767574
H        5.38680983       9.31967735       8.48880577
H        2.87808371       0.22653934       1.50795138
H        3.44552112       6.04226732       0.31553751
H        8.79091644       2.33193493      -0.19204673
H        1.83536041       3.59882474       9.41066647
H        3.50274611       3.13677263       5.85887098
H        4.67534733       7.45589781       1.13253188
H        6.86248493       8.94008160       8.39068604
H        4.79620790       5.08861637       8.01640224
H        9.36957169       1.00898755       4.82590246
H        4.48869419       6.16521835      -0.27483630
H        6.83325577       2.86683989       6.00824213
H        7.95143127       5.76421690       0.16557467
256
Properties=species:S:1:pos:R:3 pbc="F F F"
H        7.54142523       9.31861973       2.88471651
H        7.50676298       4.59266090       6.30226231
H        8.59375000       4.92625618       2.80935097
H        8.87383556       7.28996944       7.73621798
H        6.14163113       3.64831448       5.81750202
H        1.18373060       7.13793945       3.94678211
H        3.13466120       1.91119802       7.16656494
H        6.98345566       9.08543682       1.63553500
H        2.39251399       0.99079847       5.69476604
H        3.52871919       6.00841904       8.62302685
H        8.49575996       5.76914883       5.53601837
H        7.43573523       7.60346365       2.26955032
H        1.23118401       8.36517334       6.93844175
H        7.84921217       3.69119358       8.38443279
H        5.90551949       1.80827999       9.01788616
H        1.78421581       8.07857990       4.25219059
H        9.21622658       5.50345278       4.33534193
H        4.71221352       4.07317019      -0.73913080
H        5.32522345       1.34100020       6.54090548
H        3.95685792       9.61048985       3.60642385
H        1.42566657       6.77505827       6.14315701
H        1.02180803       3.11725330       8.58050823
H        0.20152155       3.65492773       8.00844574
H        5.68199110       0.45446968       3.02531791
H        7.96409225       9.04598713       9.35069370
H        3.95829368       7.79825640       3.76281500
H        1.04956925       8.42833138       8.52978039
H        2.96871829       3.81995177       1.22511995
H        9.65031052       3.89648652       0.87466568
H        2.92981529       8.26517105       4.46042490
H        8.54288864       2.02010894       4.19854450
H        7.76069641       1.66895056       3.25114107
H        1.07615852      -0.43412766       3.18319559
H        2.11255240       5.39738846       2.92219329
H        6.61798620       4.05951643       7.22103691
H        8.07916832       8.47189426       2.16868424
H        0.88799787       6.79441118       0.93289649
H        2.90863442       3.24645352       3.15487194
H        1.43368375       4.57869339       8.40166759
H        8.38340378       0.76509166       0.23287563
H        2.27425385       9.08727932       7.41932392
H        2.99359107       8.31544399       8.10966587
H        8.49540806       6.20444441       2.77336764
H        8.39856434       3.59455228       5.37368536
H        1.99728322       7.26285458       1.49381530
H        6.83433914       1.69278789       5.52854013
H        0.98457408       1.61047339       1.87444532
H        1.79724169       3.72243023       3.03320837
H        5.08515120       8.85335255       1.37698162
H        3.59517670       2.70808697       5.22897243
H        4.47621679       5.83202696       8.01296234
H        0.50747114       1.94993484       7.64629507
H        5.21506691       5.28487682       3.84282923
H        3.56680799       8.09944534       5.86284542
H        2.49945188       3.88684392       6.78697157
H        2.21519327       3.86929059       5.13013840
H        3.69226742       6.25439119       0.81048125
H        1.49608397      -0.10729475       0.02333954
H        9.74379063       8.78261185       6.52999735
H        7.13539696       6.02401066       7.99827862
H        5.07058954       7.85413313       6.28010654
H        3.82103825       8.42910767       8.79196262
H        5.27119875       3.70437479       6.50046873
H        3.37226725       4.75364828       2.83072782
H        4.89789629       2.37598157       3.52425790
H        3.51048946       1.07144094       1.82767856
H       -0.02690298       0.06662666       0.91254264
H        5.68044615       1.35208857       0.94074088
H        2.93479943       0.03912297       3.43191338
H        1.63733554       3.69449639       6.06927299
H        7.92489243       8.45654964       5.48910141
H        4.10316467       3.37704945       0.94766968
H        3.98799753       6.43461466       5.50165415
H        7.39999294       3.61203790       5.83639145
H        1.02392721       5.03868914       6.12406492
H        7.68588114       6.43313932       7.19354916
H        2.73384142      -0.14545362       2.13914895
H        6.14242887       6.74936914       8.19800854
H        2.83276916       3.57943439       4.18687868
H        6.32570076       0.50392061       8.33991623
H        3.21757030       0.85065389       7.23849154
H        7.94623184      -0.52056313       1.13528228
H        5.00256252       7.36726713       7.28141975
H        7.15039110       4.50101089       4.17337370
H        7.29053545       7.50552464       9.47487545
H        7.96392870       1.72469854       9.11050034
H        3.01015878       5.68663645       2.09672379
H        7.21196175       5.05577755       7.36286259
H        6.93039942       8.70212841       9.15571690
H        4.54721165       1.41735458       1.28243828
H        0.37635115       2.24999428       5.71449423
H        8.49581528       0.40026170       8.56429958
H        7.17436361       1.31886184       2.25983787
H        9.80021000       3.27280831       5.21783924
H        4.70458698       0.54057795       0.64126050
H        6.74087048       0.01741412       4.31956339
H        9.02203751       8.53448772       8.00829506
H        6.23312998       2.59739542       6.35679913
H        1.37653255       5.88344908       4.33998013
H        7.90553617       2.35797071       5.39722252
H        4.70852184       9.08660126       2.38211632
H        0.64854681       9.07988167       1.82413208
H        8.77833462       3.54422355       4.23038387
H        4.02075434       3.73080301       8.18144321
H        2.18092489       7.86698723       3.12914562
H        6.11752748       8.47368526       1.43290949
H        3.73619699       9.09052753       1.38650203
H        7.78954840       4.44186211       5.32179499
H        8.60991192       2.94542742       1.23920619
H        1.24555230       1.55263209       5.02965832
H        4.90621233       9.27807426       7.15524483
H        1.23260212       2.87441683       6.68560410
H        8.55222416       4.14503145       6.31741428
H        4.06894302       4.94229650       8.44207573
H        5.19271946       3.50075817       3.83937407
H        1.33483434       9.59256649       7.83084583
H        1.89842629       7.63777399       7.41492558
H        0.44622347       1.78235936       0.95407039
H        2.12638569       7.77739286       6.13593578
H        6.62300158       1.72064888       4.32880163
H        7.93921375       6.06093884       1.12205613
H        8.90768147       5.03654385      -0.03537028
H        6.00969267       8.97103214       0.35771516
H        9.05116940       9.62212086       2.32664347
H        5.32962036       6.06765604       6.88867760
H        1.80641735       2.56962872       5.56563044
H        8.85235214       2.22083378       3.11984754
H        0.23816600       7.61533689       2.84846377
H        7.98342514       2.18330145       7.58287048
H        6.18581820       6.38637066       1.96353137
H        2.22213292       7.35176659       4.96189928
H        7.15610600       2.73334622       2.24568009
H        3.12642097       8.09890556       2.62023926
H        2.53544283       5.76102734       0.45299223
H        8.51375961       1.48641026       2.49636769
H        4.69398832       6.28554392       1.13458979
H        6.86546516       1.21370053       7.59453678
H        1.52835631       0.13507843       5.19213820
H        3.05023456       2.22592854       1.77289188
H        6.06676435       2.67572832       4.51616716
H        6.30312204       5.34740114       5.72691345
H        0.67530447       2.94244218       1.15871012
H        7.55535555       6.04421377       4.82103586
H        3.47803903       4.64810085       4.19669867
H        9.34081554       2.77467203       2.17116976
H        7.78219700       0.87915993       7.88189554
H        9.02293873       1.54818106       7.99034166
H        4.76860476       4.69288683       5.67229843
H        3.52239871       5.00592899       0.71434563
H        4.89516354       1.13042963       2.28676939
H        1.04116797       6.42900562       9.23837185
H        1.26009548       6.88822222       5.16252422
H        5.23103905       5.47702503       5.24459457
H        5.95276499       0.69832754       0.14367823
H        9.35431099       4.00338888       8.99161911
H        7.33152866       2.37259412       6.65659094
H        6.04759312       5.21938705       3.25389671
H        8.17397118       6.11629581       9.57180595
H        1.51071203       2.42425561       7.62126160
H        2.09157109       2.54804730       2.18872333
H        4.55289936       3.36766648       7.29000759
H        8.65238476       3.50581264       7.37667704
H        6.39114618       5.64398813       4.53624296
H        5.44250584       2.91478992       8.38747787
H        1.03668702       2.73302603       4.79612207
H        7.25145769       3.01391482       7.69351864
H        7.66850328       1.29476619       4.96940088
H        0.34156001       0.70761788       8.38212490
H        8.01778507       7.42961597       0.93211019
H        2.95654082       1.20841408       3.12229514
H        9.10526752       6.08412838       7.91620398
H        3.65407610       2.74995971       8.03674221
H        1.69755054       0.35307094       2.40283680
H        1.82017422       6.67800665       0.39863008
H        3.67112088       2.08455396       3.88391280
H        8.33453465       5.29742241       8.17408657
H        0.56475854       7.29530144       8.71534443
H        6.71946144       1.90941465       0.75506926
H        9.76670456       2.88225985       7.25580359
H        0.69438720       8.86305141       4.39101744
H        2.26142263       1.65341330       0.63516694
H        8.23637295       7.45935488       8.54454422
H        1.85336506      -0.19591810       1.26426625
H        3.82507181       2.02489138       2.50367880
H        5.23832798       0.62425959       5.83954954
H        2.60238528       9.02173138       5.39061117
H        2.99648213       9.86076641       0.62404001
H        2.84457731       0.20379560       8.11538219
H        0.35875013       6.25414610       2.82423377
H        1.38271141       6.43194437       3.11380291
H        2.74606848       4.81178904       7.24809790
H        7.49163342       6.75869226       3.14821649
H        0.23341928       1.37646890       4.89625883
H        0.25889519       9.41640759       7.44142723
H        4.82778645       3.95046139       1.34562778
H        2.68718505       2.24476171       8.18477821
H        9.14342117       8.62356091       4.06298542
H        6.83274364       3.72107601       4.77674818
H        7.09885073       0.07364717       7.07634211
H        9.17883873       2.25378561       8.92364311
H        6.22816515       0.66783971       6.77488041
H        4.48805904       2.40773320       7.02263403
H        8.67477322       8.23678017       3.26919436
H        0.86213881       5.73005104       8.23804760
H        0.05001938       6.01141739       9.48213863
H        7.79533291       1.25206554       6.07397604
H        9.24262619       5.80275297       2.04304314
H        3.00942159       7.90636349       7.05659533
H        2.55321407       0.67691362       1.51382399
H        9.06811428       8.04167080       2.24304008
H        7.27854776       4.06235838       2.52701330
H        8.53370380       6.70912695       6.60670424
H        0.68016177       4.00168562       6.45458031
H        4.49224710       5.58648825       9.35633278
H        7.51439428       4.61891603       9.63533020
H        5.12932348       9.87842941       8.22603512
H        1.48508179       1.55359077       7.12726736
H        2.78306985       8.25592422       0.95977640
H        2.67137551       9.48834705       6.36847162
H        3.00487280       0.65641713       4.22777557
H        3.94728422       5.38767004       5.78700686
H        7.71799040       3.65888286       1.54752958
H        4.38153505       2.78901219       4.42149639
H        9.07838917       4.76544380       7.29752207
H        1.03459001       4.18918180      -0.15300082
H        1.71528590       6.31166935       1.39785993
H        1.34386444      -0.09207511       6.20164967
H        3.83534217       6.59057760       7.04027891
H        8.85091400       6.66629791       1.39237654
H        5.12343693       2.58633423       5.49981785
H        5.80204868       1.54459000       5.08422089
H        0.38125229       1.82633173       2.80790663
H        6.37248325       4.78799677       1.96657968
H        2.13509393       2.46801925       4.27937984
H        1.21720171       7.91678905       0.76014847
H        9.34877872       8.93229103       8.91890526
H        3.18362522       1.57014191       6.02300835
H        7.50859022       8.27403069       3.12749529
H        3.21943593       3.79544640       8.87838364
H        7.03757000       7.84849977       1.11886060
H        3.85579515       3.48151183       2.17642736
H        2.16878271       8.02177238       8.62261105
H        5.17299414       2.03579378       4.59431505
H        5.85481787       8.71653461       6.61215067
H        4.21772814       0.64116049       8.66348362
H        4.07392502       2.35741854       1.08241999
H        8.36486816       2.46193600       0.27137339
H        2.58431458       0.61381191       9.01182938
H        2.82787538       2.95210624       6.22814703
H        6.47425890       6.73577452       3.97521329
H        8.78385162       8.13336658       0.87722886
H        4.94137192       7.38490009       8.98542976
H        6.87310123       0.34748909       5.82674551
H        2.03717208       5.53294325       8.78775501
H        8.86511803       1.80196631       5.44344568
H        7.57719278       5.80932093       2.21298957
256
Properties=species:S:1:pos:R:3 pbc="F F F"
H        6.74874115       3.68160248       8.35335732
H        7.33284569       5.81671238       8.85270214
H        8.65635490       8.38380814       6.78257608
H        0.20205307       7.39174509       8.49116135
H        5.13132954       3.54347253       4.84318018
H        1.22739053       7.27233076       4.28664827
H        2.68752480       9.40520763       2.87143564
H        6.62315512      -0.23842169       0.23895034
H        2.28839326       0.15132640       4.32828093
H        2.89453864       4.02463484       8.48775101
H        4.88601542       5.55963564       6.40769291
H        6.61215830       0.03460067       4.17388773
H        1.94880760       8.32597065       7.87912464
H        8.20906162       4.36960030       9.01749516
H        5.28526115       3.70063615       6.09595823
H        2.44968820       7.72328138       3.07250810
H        5.54863691       6.29681540       4.28538322
H        2.71845222       5.17987919       6.54782867
H        4.20696115       1.61200893       4.89577389
H        5.97835922       9.34873772       1.49519014
H        7.81582928       5.39697695       6.76162291
H        1.80326664       3.56680417       7.63356113
H        1.72900009       2.17167497       8.41758060
H        6.53133011       1.26578200       7.95028639
H        0.45537537       9.30767155       0.32916030
H        3.41341448       8.46010208       5.76352739
H        0.40492052       6.47731304       7.68036604
H        2.59423280       3.32969594       3.61535406
H        1.76448500       4.75324488       9.49104977
H        1.45790148       8.28118324       5.17060089
H        7.23173714       8.68879318       3.23941946
H        8.54933548       3.56999850       3.60628057
H        9.51898193       9.06759548       3.96855402
H        2.91426301       4.76250696       4.89749384
H        8.51907635       6.62459469       7.95342016
H        7.56224012       7.79250240       5.18114090
H        1.07934451       7.14345741       3.23754096
H        2.97896767       1.04837501       3.97483850
H       -0.28545284       4.76994371       8.01612568
H        4.54081535       2.13290715       6.25186491
H        3.58311796       6.88486147       6.22209120
H        3.03511739       0.96682572       5.80930090
H        7.22939825       9.64908028       5.32919550
H        8.76427460       2.30139637       7.06439924
H        2.93209195       8.19216347       0.94410115
H        7.70215654       2.08188844       4.65558100
H        7.68210888       2.46054864       1.45153928
H        3.55786228       4.53999949       1.00300932
H        5.35862350       8.67264271       0.18263476
H        5.98811245       0.85307944       3.87455320
H        1.57375956       3.91494083       6.62024975
H        2.78401995       3.09257650       7.34348631
H        7.33580208       6.96609306       3.63423085
H        4.91400385       8.78870869       8.48537922
H        2.76620388       1.81233847       5.24344778
H        8.63318539       6.41488504       1.17150760
H        3.05126023       6.70603132       8.56864452
H        2.80581641       8.53514767       8.94986725
H        1.38937497       9.60510063       5.80230045
H        7.75013351       6.81784201       6.03996229
H        5.95716238       8.92502785       7.49530029
H        3.61125422       7.68379450       0.14502017
H        3.51639128       2.37747049       5.83099461
H        3.23319530       3.67493987       4.52326727
H        4.25327301       0.44153666       0.81874144
H        1.44981349       1.38727725       3.15093327
H        7.19915390       2.29712439       0.52717870
H        5.36030054       6.08777237       0.24653840
H        4.90676594       0.69905490       5.13465929
H        2.14285684       1.00321770       4.99336529
H        8.26737595       8.47039509       4.32481384
H        8.45367813       1.77736986       2.57065415
H       -0.04891977       3.82127500       5.59504032
H        0.80723608       1.97017121       7.01769114
H        1.42015088       3.36433721       5.50379848
H        8.64404678       3.99927735       0.36734271
H        2.67777514       7.26384544       1.60862923
H        5.09929848       7.55728197       6.89173412
H        2.83925223       2.30309796       4.15170908
H        7.90469170       0.46857101       0.42924359
H        5.00039959       1.52880335       7.30514383
H        7.25956821       0.92414260       2.83419466
H        3.59854770       7.69460011       8.11637497
H        6.60097980       7.63103342       5.73299837
H        7.62497711       9.50854683       2.60661221
H        7.65112066       2.61480570       7.28939390
H        2.40354800       1.94149387       9.22801590
H        2.03732824       6.57188320       8.14709187
H        6.67123079       1.62734902       4.05010223
H        6.57755184       1.28397894       0.65743583
H        1.33509088       0.30075398       0.95459759
H        0.36486420       8.79433060       1.48309207
H        7.48633099       6.47593117       0.57722491
H        1.36367512       3.27364850       3.22741532
H        6.34420729       1.06611741       1.76678419
H        5.73083878       8.90550804       5.18754673
H        8.53643703       8.58452034       1.97489464
H        8.56805420       1.62601590       5.64272833
H        1.00925922       1.18363249       5.85142517
H        7.36784124       0.21927288       6.52136850
H        1.91618216       5.69310713       3.15721726
H        7.77884531       1.14841330       1.21381497
H        0.71374464       9.22867489       6.66288710
H        2.30839491       4.38472652       7.20413446
H        3.54087496       5.42395449       3.88213110
H        4.52357817       8.31084347       5.21480894
H        4.24750662       0.24758491       7.99378872
H        1.83494818       4.40558863       4.29660225
H        8.67828369       2.21694946       0.28729254
H        2.06204677       3.12098432       4.59859753
H        7.13361788       1.37030423       8.76361942
H        2.89745903       1.47341084       7.17722893
H        7.05499458       3.10377312       4.66710806
H        3.06243730       5.42489719       8.34876919
H        7.17133999       3.37588310       3.30498981
H        2.57271266       8.03953266       6.75223160
H        4.32621431       8.96442509       7.17722178
H        2.77954078       1.28370798       8.17531872
H        1.11766481       7.71725178       7.48431635
H        6.72709942       2.23720407       5.15411854
H        7.97845364       3.37279773       1.13647807
H        7.21766281       7.10130835       8.04341221
H        4.25704527       6.63361645       1.04338896
H        0.34655681       1.04914093       2.73079228
H        6.72523308       5.31258726       6.58761692
H        8.35645294       0.75003856       3.10428953
H        7.76950073       1.39198208       3.59520936
H        2.01297212       6.30112886       4.22358513
H        6.17035484       0.03793902       8.46933270
H        3.50309682       7.84642887       1.97289407
H        4.61649799       2.44164705       3.78211689
H        4.83709240       7.34093046       2.39236498
H        8.12845325       4.11568689       7.95623016
H        0.56355226       4.18509579       2.80928326
H        2.38666105       0.89581317       9.21190071
H        4.53390503       7.03022194       9.59215832
H        4.73277235       3.08998132       9.13278580
H        3.59666824       0.90321976       2.12184238
H        4.05417490       1.47330904       8.32172680
H        6.15661049       2.19678164       6.50496912
H        5.18025780       7.55642653       7.97627306
H        2.89865947       2.83104444       0.07551224
H        6.82101011       6.09083176       5.75748539
H        5.88579941       1.77001214       4.65939236
H        9.16368484       3.48233628       1.39281452
H        7.44180775       8.15231991       2.01457047
H        1.95529139       0.82230985       7.58621597
H        4.75536346       4.34566641       3.47791362
H        6.74122763       7.74024057       4.46259785
H        6.94735622       0.33077177       1.17371297
H        0.90722787       5.47066164       9.27956104
H        3.01741672       5.70585489       4.97268200
H        6.97672749       5.60026407       3.84482479
H        5.65866756       3.56201577       8.75127220
H        8.60189533       4.73412514       2.74643302
H        9.00230312       0.91751587       8.26107407
H        6.42619133       3.95697522       0.34595406
H        6.26277018       6.88109875       8.67844296
H        1.62581277       5.11572647       8.19423103
H        1.06714153       3.52369523       1.81157422
H        4.57968807       5.51475859       3.86149216
H        7.42069530       1.40324008       5.82864141
H        6.55853462       4.08583593       5.16830635
H        4.56362486       5.06937647       0.25546110
H        2.32269597       3.94308352       5.42906761
H        7.39203072       4.89235687       5.81958151
H        8.18371582       1.10705888       6.60098314
H        8.24584198       8.53037071       0.50088722
H        0.79227191       7.64978123       2.06486726
H        3.76069355       9.07525730       1.87276602
H        8.95077133       7.38751650       6.77577257
H        2.73326159       0.43251961       6.73569345
H        1.20491397       8.20919132       3.60617518
H        3.93013525       6.55275488       3.45355010
H        4.54606867       1.53945363       1.45597029
H        7.82265425       8.13538265       7.99759579
H        2.31614089       5.65586233       8.94936848
H        8.84893894       5.12560225       9.02630234
H        1.02191436       0.78332788       6.86715364
H        0.97476417       0.04691757       3.97020864
H        1.91314244       0.30096552       2.29554248
H        0.52758211       7.47335529       6.48978424
H        2.12558317       8.41552544       1.97861159
H        2.54083347       0.04812941       1.41387320
H        6.05352592       1.05906904       6.68722677
H        4.17970848       5.31732512       5.13294983
H        3.69892240       8.76885319       8.58675289
H        1.93340063       8.40141010       0.78231317
H        1.60734272       6.22701883       1.55455410
H        9.49048519       5.18108654       3.03043985
H        9.01077366       3.45366549       8.42681122
H        7.65475988       6.10391140       4.97640944
H        8.14977932       0.10735162       1.67631924
H        1.28053010       8.87680054       9.35251808
H        2.50319362       5.65468025       2.06603575
H        3.90755773       4.55614567       7.75426245
H        0.47040132       5.80830574       3.71571851
H        6.58806705       4.47618437       4.15249634
H        6.43207264       8.75249100       5.86514807
H        8.57118034       2.87301826       5.92426348
H        5.48960781       0.44284701       0.26548854
H        4.45970154       2.26826787       9.79105473
H        9.64173412       9.44757843       5.26472569
H        8.91862583       4.88472271       1.42415297
H        0.47091770       5.96321106       0.98125726
H        8.48252106       9.15384293       5.75347805
H        1.73975194       6.28964758       0.60963082
H        0.88143933       5.13344288       4.87928104
H        0.56082231       9.02713585       3.10844994
H        9.15779495       0.07379687       2.46905637
H        8.79488468       6.14012527       3.55036235
H        9.21912289       8.40961838       8.13314152
H        1.52122855       2.80499363       6.71141386
H        4.90241766       3.82104087       8.10388374
H        6.83295584       5.03585815       0.31320092
H        7.22383118      -0.21191545       8.59866524
H        2.59183860      -0.44167984       6.07830811
H        3.06381059       9.31676102       0.16640966
H        4.61019564       2.76522994       7.82238388
H        4.75261116       9.09824085       1.54150033
H        2.79047537       7.46604872       4.98872042
H        5.28874922       6.15960503       1.76522958
H        5.86012936       2.85461402       4.41833735
H        8.88552475       4.31516647       6.53694439
H        4.21372414       2.47739887       1.25281537
H        1.86165786       3.41559625       9.11639786
H        9.01567745       2.24040747       4.65777063
H        5.91767216       5.27672148       5.78876829
H        0.79780096       4.57975435       1.81819868
H        5.47722626       2.51747942       7.24925518
H        7.29405212       3.56230855       6.68969488
H        0.18500173       2.34635091       0.50058901
H        6.02929878       6.98989391       1.41400743
H        3.46961021       2.74100971       3.27339292
H        1.95693588       7.12014961       0.08572005
H        1.21518576       6.70608139       8.91848660
H        6.21466970       3.27939105       5.56072378
H        7.27998257       1.49516964       7.22893333
H        4.28193474       6.01567650       8.70997334
H        4.36760569       7.71048212       3.37837577
H        6.60357523       4.40720510       3.14127135
H        1.09635246       6.45910645       6.75308084
H        6.53126240       1.70676148       2.74225140
H        4.36094093       8.49471378       9.50237370
H        8.79407597       9.12174892       9.00217056
H        6.32776594       2.60538554       1.51557100
H        0.66155583       1.87166333       8.91987324
H        1.98794901       0.96803868       6.31198025
H        4.84251070       4.56301880       6.23562002
H        5.94865322       0.73096246       4.91835070
H        0.77551204       7.62171268       0.40652069
H        2.85083437       9.06984425       8.01847553
H        4.72609186       7.41943359       5.92138481
H        3.81480861       4.89989901       8.87220860
H        0.16327138       1.76235271       6.09632254
H        7.95432377       7.52076769       0.67553538
256
Properties=species:S:1:pos:R:3 pbc="F F F"
H        7.05942774       3.62714624       8.91774464
H        7.28394794       7.69661713       8.91152287
H        9.03026676       0.84437013       8.43371201
H        9.30100727       3.97874856       2.23829007
H        8.58539295       4.07523489       3.08480024
H        0.28374654       5.44975758       6.65913391
H        1.19650340       0.82652617       3.23186707
H        8.85379124       9.51119614       3.40717602
H        2.71684837       0.33388215       5.34276676
H        5.27950382       5.24386597       6.14663982
H        1.31109917       6.06071329       3.64891529
H        6.77608919       8.53872871       6.10126591
H        2.54592037       8.24638271       2.04517961
H        5.88833380       6.15580654       1.54589963
H        3.10653996       3.16028023       5.80971813
H        3.33612323       9.05495644       0.71392673
H        2.84535861       7.03620815       4.98636723
H        2.52209496       4.01295090       5.29844856
H        2.98899913       1.65312970       4.99139357
H        8.34267807       0.53291321       0.84883600
H        7.20361376       7.14084721       7.88334465
H        1.49760354       1.66791046       7.09910154
H        2.15890408       1.92384505       6.22258902
H        7.65631866       2.69432282       8.22756004
H        2.67273259       2.62273312       8.82774258
H        1.65253568       6.69811869       4.78510666
H        1.29840863       3.40821028       5.66141796
H        2.25816607       1.03159833       4.37138557
H        2.05168962       2.86144638       0.85206109
H        2.15229082       0.93420595       6.06593800
H        7.12853146       9.51170063       6.00605345
H        0.97558665       3.98625255       3.64568639
H        1.78763330       8.50891590       4.13857985
H        2.67029428       4.86260080       6.27065611
H        8.17690468       8.33775139       8.47412872
H        8.79826450       8.03694439       0.48599559
H        1.03077698       7.09132099       2.29320049
H        1.36099172       2.88007426       2.90383554
H        8.37178802       8.37386894       7.00185966
H        3.87638021       4.21389151       6.87706184
H        4.90318394       8.02215576       5.70658827
H        3.25381303       7.94832945       3.23020434
H        8.60840988       2.46428108       4.14502048
H        9.33092213       3.98640966       4.16309118
H        3.67020798       0.43695384       8.46929932
H        6.27741671       1.43743885       5.47761965
H        6.69463015       2.45228338       8.69114208
H        3.62989783       2.35920858       0.28744122
H        6.64846945       7.24981260       9.63874531
H        6.28572893       8.68363857       4.44207811
H        1.79589355       3.00691605       6.63445473
H        3.03767109       3.43251228       6.95459318
H        6.51301289       6.28903389       4.47492170
H        8.80839348       9.05181789       0.60521644
H        1.22565007       1.96337438       4.62825680
H        8.49605751       7.23673010       1.64480603
H        3.50576520       4.56607103       5.58868742
H        4.27626038       5.79469061       4.86126518
H        2.50565505       7.41712284       3.91767955
H        8.30174541       6.04732275       7.22933531
H        7.13322496       5.55517673       6.44105196
H        3.95879388       0.60626894       0.98095649
H        2.51122952       2.69183493       4.29022646
H        3.76256633       7.74813318       4.81864738
H        5.58245707       8.02289009       1.24139893
H        0.03423876       1.35776293       4.90047789
H        3.94612670       2.01298189       8.67230129
H        4.62355042       6.20901871       8.20026112
H        6.50916004       2.80858684       7.19341087
H        8.37829590       0.30665591       4.39172268
H        7.54033852       6.79224253       5.01607943
H        0.56906307       8.60657978       4.20525742
H        6.55192709       2.03259468       2.42741871
H        1.34538412       2.70824122       8.01188469
H        9.26844883       0.29329178       5.87475681
H        9.37508488       1.21861005       1.52185547
H        2.27049780       7.23088503       8.31729507
H        6.65732288       7.88540936       7.32937860
H        1.42303705       1.77858710       2.83872485
H        5.60298252       8.50160408       0.04997182
H        9.11556530       2.55053473       6.79250574
H        0.80549383       1.83495843       3.60786366
H        3.53348804       7.37197924       9.16814041
H        7.61008883       5.09657383       3.17565155
H        7.60913324       1.05067074       1.25706875
H        0.64251429       0.96484786      -0.10122562
H        4.31680059       3.11593151       6.28077507
H        1.63524926       6.67758179       7.62664986
H        7.14123154       1.98221493       4.76614237
H        7.63009977       0.90821177       0.03338141
H        2.16973877       1.19567502       8.62246132
H        6.71238375       9.22945595       0.31342855
H        7.82630110       7.34162903       0.44639820
H        2.40246487       1.86470175       3.26440859
H        4.99235868       5.32363796       1.11922669
H        7.51238298       6.58829975       6.98344374
H        2.06494617       7.31108332       1.64646697
H        9.19792843       2.78295469       5.36957407
H        0.45978326       3.04585385       6.21619844
H        1.86827064       7.87903786       5.00058365
H        1.10584748       3.70280743       1.00275314
H        7.54041910       0.69349307       3.32443500
H        7.29906416       5.51486301       7.85994864
H        4.22237825       3.84601021       9.09846306
H        6.57062674       2.08093476       1.25473332
H        5.29098892       8.89575863       5.17789936
H        4.68713427       8.12867260       9.20581722
H        1.66696227       4.56079197       6.08884811
H        1.09788382       1.61081409       0.60963148
H        0.21263042       3.00130200       4.10274220
H        6.33368731       0.36804330       1.06481779
H        2.74452925       0.14158224       7.96013069
H        6.87382507       3.39363790       5.67015123
H        5.51549006       8.84878254       6.19983244
H        7.44532251       3.27984762       3.72487259
H        1.54146087       7.07992554       6.65580750
H        7.55296326       8.20271683       7.64013004
H        5.12005806       3.54196072       7.32511377
H        1.21790051       3.88562727       6.86002636
H        6.16916466       0.56300056       6.21080732
H        9.13454723       2.40397167       1.32909536
H        6.06539154       6.94044542       8.06982803
H        3.09058332       5.48975563       9.32134628
H        7.42435932       7.76757717       6.76201296
H        6.51381111       4.77005482       9.46809101
H        9.18492889       9.08184910       4.54030561
H        8.52254200       1.07609701       3.30276465
H        1.11696649       6.25575781       5.83365488
H        9.39939213       1.50346577       7.50199699
H        4.39740467       8.65603542       1.59972334
H        0.13662732       5.00384092       0.95152378
H        5.30048704       7.00815964       4.60726500
H        8.32154465       5.09087086       0.41011801
H        2.19434929       3.85294652       3.77171469
H        1.98451030      -0.25571975       7.39707613
H        3.97627854       4.89312553       9.42872238
H        5.13703299       5.95327473       2.10281229
H        4.93238401       1.47096252       9.00115204
H        4.99234152       4.44177437       6.78969049
H        4.47766781       0.28378078       3.93719864
H        3.63413882       6.65434647       8.10848331
H        1.67852533       6.83918571       0.72347170
H        8.88996983       5.31081629       8.36285019
H        7.23995161       2.06920934       6.54185247
H        9.52203751       3.41089249       7.12717724
H        6.56918859       8.19837475       3.59276438
H        4.17742920       9.33517456       5.70602274
H        6.56778431       4.08568907       1.72343040
H        0.44356215       3.97552705       5.37884235
H        8.72292042       8.06105614       3.62455440
H        8.76306057       6.14824915       0.66915154
H        2.02763033       5.79388475       6.08630657
H        7.71586466       8.75614548       3.07202911
H        5.98486996       2.63008618       6.07715845
H        5.43353081       6.30950689       3.56557560
H        2.03419948       1.04882646       0.37795296
H        6.41309834       4.02284336       7.98533154
H        5.39538956       7.73753977       8.15930939
H        2.10943484       4.59515572       7.20739603
H        2.76146960       0.65613699       1.02431071
H        4.42311621       6.13005066       0.00760344
H        7.93002892       2.79367161       5.16176987
H        5.09440422       2.38344240       4.88918877
H        5.87851715       6.41296768      -0.41182745
H        3.74311996       3.77010298       3.99624515
H        7.82961702       4.08267879       7.69747734
H        8.44736576       3.65468884       6.34108305
H        7.79632664       8.65119267       1.54967821
H        4.69076347       8.53359509       4.32778597
H        4.66811562       0.71053481       8.09848309
H        0.41337350       5.46595478       4.19626808
H        3.92022300       0.99586558       6.88207912
H        1.14080405       8.92401409       3.07780147
H        3.49638152       5.99854565       0.72400928
H        2.56085253       6.10009098       1.76087928
H        4.62841129       6.88168287       7.40419436
H        2.51735950       5.76484108       7.23934412
H        7.07982635       5.47389412       0.71735477
H        2.72166753      -0.01954553       6.42629099
H        0.53408140       6.56092310       4.90942574
H        1.21747327       6.38557339      -0.15910271
H        8.02213097       8.88580322       5.07434464
H        5.05109358       8.47152901       3.31421089
H        2.35097718       7.44936228       2.86183906
H        7.64318275       5.48521280       9.08344078
H        8.44397068       6.89294672       6.10794497
H        3.77026939       8.62727642       8.19121552
H        0.97008902       7.71060753       1.20501566
H        0.35619572       6.04128551       1.03788590
H        1.62503004       3.99579477       2.62231112
H        7.41807556       0.37657744       4.99038887
H        7.73144197       7.37710953       4.07372046
H        1.09997332       0.44767854       1.54916382
H        1.35959506       8.24682617       5.75864410
H        0.98919511       4.83488703       3.07837605
H        5.39511681       6.08342505       7.49943447
H        1.28435254       4.87147331       4.23139429
H        5.76959276       7.34874725       2.05103779
H        7.98341990       9.16808033       9.15731335
H        7.73888350       2.17304063       3.29270005
H        5.58055162       7.40812635       9.45846462
H        8.97586632       1.96818483       8.54711151
H        2.02256131       2.52236748       5.41089725
H        6.55983114       2.80570054       4.66177177
H        7.09086800       2.75526476       2.07193470
H        9.00367069       1.34370732       5.88137341
H        0.11004606       5.61383963       9.28176403
H        1.47979271       2.87460279       4.05680418
H        1.18418062       0.25287116       4.12944460
H        9.66453648       9.67328358       1.24303246
H        9.04530716       8.51753807       6.13997507
H        2.62929773       8.68531036       9.42780972
H        1.89148772       0.84593433       7.65986872
H        3.09679341       3.56746888       8.47566509
H        4.44391346       7.41741037       0.42304513
H        4.58672667       9.50216866       9.53505421
H        0.74145991       2.19619012       5.49106979
H        1.81585884      -0.01610431       2.21258259
H        6.00400543       3.02594662       9.90492725
H        6.74359417       8.00143909       0.97631294
H        2.06962299       8.60048485       8.40099716
H        3.83489823       5.31505919       4.01645613
H        2.29327869       0.90210497       2.72480917
H        1.59802890       3.85492396       4.70297956
H        2.45511889       3.18897676       2.81727242
H        2.68453789       1.57044578       7.25828171
H        1.48296249       1.01404583       5.07520151
H        7.56573725       4.24563837       5.33682251
H        0.51548666       4.55599117      -0.51029348
H        3.74063468       3.68717146       5.04228830
H        7.81545591       3.07379270       7.02603483
H        1.75394607       2.33960319       9.41540527
H        4.77659464       7.44992685       2.84121227
H        3.30088711       1.31091714       0.11608544
H        8.92030239       7.20270061       7.90876770
H        9.17825794       8.73954582       8.36430073
H        6.16005135       0.37259692       5.00197792
H        8.47214127       5.88758659       1.80006313
H        4.26575470       4.99687099       8.31546021
H        3.47779655       6.96203661       3.89339972
H        7.48539591       4.03960419       2.98988581
H        8.36040688       0.95448619       5.15554857
H        4.61096048       1.40771806       2.12104011
H        1.97128773       9.53135204       9.60644913
H        8.12112331       1.87438881       0.48667771
H        5.28761768       2.15648341       1.01952291
H        0.50449228       2.80516195       9.40233612
H        4.53001833       1.54501677       4.75341177
H        8.41001987       5.93440056       5.07964659
H        7.56497955       1.40336776       5.69062948
H        8.98216343       7.81204557       9.06864262
H        5.78015423       0.57216561       7.16445827
H        6.81022930       1.20216370       7.80751133
H        5.44884253       5.54639769       8.40096283
H        1.84111559       5.07868814       8.69699097
H        5.82959509       7.02901173       1.06127572
256
Properties=species:S:1:pos:R:3 pbc="F F F"
H        8.14801788       1.63085377       0.86476296
H        8.47539234       9.11830616       0.41052911
H        8.62722874       1.45976126       9.05136204
H        2.44605041       4.44681358       2.16659403
H        0.62077439       3.09427834       1.91970313
H        0.22350082       5.63431644       6.06316185
H        1.19992805       2.28830886       4.24437237
H        0.45206842       1.54681218       5.04667282
H        5.23381901      -0.09980030       6.25104141
H        4.49473858       6.27380991       4.91332579
H        8.66222668       4.83282471       1.27190423
H        8.06777477       8.11289978       7.20031118
H        4.40664148       6.84491873       2.54100418
H        6.39722109       5.52703857       2.43341613
H        3.11378574       4.75602102       4.06728745
H        3.82318950       1.30083132       3.45087934
H        2.35725546       6.35038185       1.73138583
H        5.76326180       2.30233741       2.54043508
H        5.39985943       0.49651191       1.99363542
H        7.40932608       0.73453116       0.63979113
H        5.66513109       6.16275072       8.48234940
H        3.13878441       0.59106266       6.40915251
H        3.73697019       1.19796932       5.55107498
H        7.90108538       3.04733825       1.30212486
H        3.52180219       0.29985613       7.36847544
H        9.20080948       3.70929933       3.15834689
H        3.62915564       2.23015738       5.57666445
H        3.04563713       8.02080250       4.96167040
H        2.76896262       2.42910933      -0.18466353
H        0.81569350       9.00801086       5.63619566
H        1.01619458       1.72430754       7.95530128
H        1.39056981       3.76457095       2.43387032
H        1.95805597       6.91445398       2.92859960
H        2.51120615       6.18405056       6.55739117
H        1.58797908       7.52197933       8.90006733
H        7.44798899       6.72674227       2.05404711
H        2.75435758       7.64846563       0.80977613
H        0.46931377       1.06659281       2.28656983
H        0.27396965       0.70697469       6.92069912
H        4.76656675       5.69568920       7.86411619
H        4.05546284       7.78018188       4.94163179
H        3.04879475       9.20444393       4.04851103
H        7.51529455       2.93010736       2.24061489
H        0.36174673       4.94791508       1.25966823
H        4.74468851       9.03703785       7.94287777
H        7.02431059       0.57529980       5.81093121
H        6.86737776       6.45452309       8.93074894
H        1.45409846       3.62095451       8.43315315
H        7.00570631       6.75348186       0.51340455
H        7.38708973       9.13721275       5.85531235
H        1.72085440       4.20834303       6.72922277
H        5.26368570       2.77258253       1.59753418
H        6.07592201       1.59968150       3.79803514
H        8.06536198       8.88216209       2.38982940
H        2.69270635       1.16860485       5.52743959
H        8.61998367       6.93903399       3.25648236
H        6.59590054       2.61433101       3.11067557
H        6.33733511       4.12547493       4.54343224
H        3.65610790       7.12448883       1.67514300
H        8.61968517       5.61707544       2.25923896
H        6.13545752       3.09550381       7.09506559
H        4.01421595      -0.03684390       9.36029911
H        3.45764780       2.99108863       0.99742806
H        3.48788929       5.38260746       6.80350733
H        4.25182962       8.85383511       0.69975537
H        0.92181033       1.41219735       6.10793161
H        2.05573869       1.58035934       0.58029306
H        3.51627421       5.81089783       0.40150183
H        8.13537788       3.38650632       0.29402998
H        9.22432613      -0.12650928       5.71404886
H        7.45862961       7.24799347       3.04786420
H        0.16587631       8.98336315       3.91959047
H        5.68070555       5.05059910       6.56630325
H        2.78361320       6.00826550       9.07669449
H        0.54886746       0.51483351       5.13304424
H        0.21378790       2.77255940       3.17041016
H        1.47843134       7.90910769       7.31662989
H        8.44790840       6.20786619       7.73737907
H        1.81779838       0.78990191       1.85028446
H        3.65626431       8.89867496       1.68938923
H        9.47514915       4.24817657       7.62812614
H        9.21865940       2.00700307       4.43408871
H        4.91379929       7.10922432       5.61174965
H        8.53690910       1.21313238       2.01624584
H        6.14354515       7.72172117       1.25032783
H        1.67965841       2.09096503       8.93653107
H        5.35257530       5.06599426       4.20014048
H       -0.09234418       7.90452862       7.74894285
H        5.02961111       2.17726612       4.49368429
H        7.15606642       1.48447382       1.35529912
H        2.17531633      -0.10200415      10.37784386
H        5.94687223      -0.19984351       3.38756037
H        5.88586617       6.76259851       9.40799236
H        5.15605640       1.68316829       1.97283340
H        3.99216604       7.95599318       2.33927274
H        7.15367413       3.53917646       7.51975298
H        1.89341879       9.51544380       3.23146152
H        8.83051491       2.34191799       1.38151908
H        0.89093709       3.42195153       5.47627068
H        4.01332760       8.31272602       3.79105353
H        5.90968800       4.55690384       2.69584680
H        6.51701880       7.77867746       2.36271954
H        7.12902784       3.57704163       9.20513058
H        2.34895158       4.89801407      -0.17765516
H        7.61443043       1.01077974       8.90663910
H        5.68849850       8.37373161       2.97368813
H        2.86269736      -0.44480258       2.92390633
H        0.71423012       5.78426170       3.20903540
H        0.55438358       2.97482729       7.88028288
H        1.98876250       4.89044905       4.70728779
H        6.17462587       8.74493885       1.19674671
H        4.88376284       0.90862536       5.51246071
H        1.00391424       3.00701332      -0.25558081
H        6.93805408       7.24003172       5.12103748
H        5.92315912       0.81037039       4.83083010
H        8.73383331       7.46359968       6.51761341
H        8.40243530       1.19160330       7.36566734
H        5.12159014       3.63530850       4.28378773
H        3.49906635       3.78824472       6.34448385
H        5.33229589       7.54220486       9.22288895
H        9.64287758       2.06977367       2.10782003
H        7.63525772       6.74293470       7.79433870
H        3.20332813       6.96253443       7.17213774
H        7.26744509       4.64843273       6.33624554
H        5.32171297       5.94769382       2.18040442
H        7.49501514       8.10703564       8.24157810
H        8.86763382       1.04385924       4.15366793
H        2.15369439       5.92676878       5.14923573
H        2.86409807       2.24388814       6.33235836
H        6.09203100       1.89923120       1.30869853
H        9.32197571       6.45465994       8.88848782
H        0.43695927       6.44473457       5.15435219
H        0.69396615       5.88251305       0.58110070
H        0.70853692       1.84371209       2.99223089
H        8.46741962       3.91341901       8.81208134
H        4.53137922       5.50347424       2.87679791
H        1.56673145       5.83705902       4.04200459
H        6.48129845       2.02276802       7.26995945
H        7.36895132       8.67575169       4.88807392
H        4.82379627       9.28737831       5.03726292
H        3.92754531       6.37324095       7.65997171
H       -0.44034123       8.24790382       5.26664257
H        1.17236793       1.17146432       8.88525772
H        7.32252932       2.80870104       6.90262747
H        8.02773666       5.37288141       5.55633688
H        5.90594053       9.02414131       2.21122265
H        2.59626961       6.25712633       4.15172625
H        6.07585812       4.37446022       0.74972141
H        0.69832921       3.20830226       4.18518925
H        6.76184464       4.70530033       3.41471529
H        8.76225281       5.98588753       3.31949234
H        1.50638378       3.61795330       4.67466450
H        6.21359730       0.26830873       1.11491966
H        8.26852226       0.40354759       2.72039461
H        5.96659327       5.57733297       3.50595617
H        1.71052134       1.03681827       2.93559957
H        3.86190176       6.10713148       1.45315182
H        5.35623646       6.21308899       6.99035311
H        3.01184011       3.59198499       5.24079466
H        4.10623789       4.40717077       3.79519558
H        1.38565540       5.69902515       8.33518791
H        8.45355892       2.85476947       2.83241510
H        7.45353842       1.50017595       7.21383619
H        2.92871761       8.44682598       0.07251276
H        7.00807762       1.66124904       2.36793113
H        8.21618938       6.27828455       9.07110310
H        7.88116360       3.87041450       3.74340844
H        0.44989011       7.19275141       1.97387481
H        5.42253780       7.34928894       3.82037354
H        6.87700987       2.87289262       6.01260996
H        2.08717847       3.67763591       0.33586684
H        0.51709819       9.14315510       8.99898529
H        8.48471546       6.63534832       4.34137917
H        2.96245551       3.95704722       0.97986645
H        1.72409713       6.17000818       0.46146226
H        3.79074383       7.74957943       7.46318960
H        1.33475113       6.10303783       5.94145250
H        7.44983530       4.39436102       1.98731101
H        2.76521134       0.74429685       4.17474699
H        2.26643300       4.97201633       5.82028341
H        2.86385250       7.11856365       9.27062798
H        4.43157530       7.84450912       6.30957317
H        5.57466602       6.96415329       2.59738660
H        0.80807590       6.61935663       4.20177794
H        8.77573204       6.15439224       1.04952753
H        8.69226265       6.13664770       6.63028765
H        2.31676412       9.15322971       6.33132076
H        2.64501238       8.20584106       7.52883339
H        0.67984372       8.61716652       3.06403756
H        1.75822902       5.68851852       2.57079840
H        9.37924480       2.41309309       7.29794884
H        9.13309288       7.23120975       5.34556007
H        1.16769564       0.32974771       4.15743113
H        2.81585383       8.05910969       6.61497355
H        0.90463883       5.59262800       5.09567642
H        5.47734785       5.77596664       4.88312721
H        2.92793441       3.79816842       3.21154571
H        5.35809278       6.43570852       3.38618016
H        6.93317223       9.09615803       0.30731648
H        7.88140106       0.11188740       4.24553585
H        6.29270935       9.04878235       5.94140005
H        3.11764336       4.85775805       7.96088743
H        3.93400860       2.74815702       6.57647943
H        8.22637463       2.83486247       5.70160484
H        4.28996563       3.21593785       3.56691527
H        8.21485138       0.34032306       5.78785706
H        6.32129765       6.41322231       7.50979185
H        2.33227015       1.78638780       4.24339676
H        1.37645471       1.09717119       5.26519203
H        0.53924888       9.33836651       1.71648562
H        8.35845661       8.70818520       6.19341755
H        2.62373352       8.72733116       1.37454557
H        2.09273577       9.58108902       4.91011381
H        3.74411964       3.65337944       2.19959068
H        3.72613406       6.84239292       0.62539756
H        3.97079015       9.44204807       6.28323364
H        0.87589556       4.59778738       5.54938173
H        0.41787925       0.84041482       3.59038138
H        4.92097807       3.59207535       2.69535851
H        4.62756348       6.93291521       8.38145828
H       -0.10122074       8.31510544      -0.07021338
H        3.39078355       6.16559505       4.80104923
H        3.52490330       2.02995563       4.31344604
H        7.26566696       5.78013849       3.53918362
H        4.27506781       2.34571743       2.22575092
H        4.33520222       0.82434601       4.50538158
H        9.48523998       2.83504725       5.27271748
H        7.67458963       2.23691583       3.38726211
H        0.80532002       6.71368599       7.62043953
H        1.71737468       2.08592916       5.23404169
H        0.16894294       0.70125747       8.08138561
H        0.33133692       4.79984570       8.78808308
H        6.08429861       6.53223324       6.24576902
H        2.92915177       0.94265187       1.26079214
H        8.07816505       9.11341953       7.39164352
H        8.90076447       8.80965900       8.32436180
H        6.10673714       6.73484373       4.35162544
H        1.53235388       4.53791189       1.00218439
H        4.90115833       5.73886299       9.31195259
H        3.43905616       5.97636557       3.66988564
H        7.06608486       3.59183073       0.93081170
H        6.96730375       1.40533304       4.62093973
H        3.11094499       1.89670610       0.63381296
H        0.60376137       6.80696487       3.24357820
H        3.58870864       5.09845781       1.31799388
H        8.21205044       4.80716419       3.28432798
H        0.81540424       4.76852369       7.19852781
H        6.51157093       0.32880363       2.27584076
H        5.12387466       7.47136211       1.59208047
H        7.13989210       1.87144232       9.89049053
H        6.15195560       9.02334213       8.03576374
H        6.69656277       1.49286747       8.92301750
H        8.17752838       2.39565253       7.63511992
H        3.97156453       5.52068663       8.45754814
H        2.07169008       6.96442318       7.88854313
H        6.61383629       5.34648228       1.41119635
256
Properties=species:S:1:pos:R:3 pbc="F F F"
H        9.07962704       6.94908571       0.36854801
H        9.54191589       8.93618202       9.26025963
H        1.23425591       2.26776838       6.33052969
H        4.22232771       3.94989610       1.28679883
H        8.45323658       4.87527800       1.57687056
H        1.33023047       5.40915918       3.00524259
H        0.26511255       1.84251976       5.66731167
H        0.70855409       4.14269400       7.31727314
H       -0.02791716       2.11828518       4.60066366
H        5.68859577       4.93523884       4.98347330
H        8.17195606       4.69952774       9.36077118
H        6.81896687       7.41667223       6.65922880
H        5.45277548       5.41042137       1.48697162
H        7.87277603       6.16321087       0.11301433
H        3.67704225       4.03425074       3.63835359
H        3.08450627       1.30629849       5.66639376
H        3.51924229       5.80590963       7.92649794
H        5.23867369       1.25298917       2.41034579
H        3.30959582       0.03378354       9.28050900
H        8.34959698       1.44308436      -0.16943343
H        3.44415402       3.75577927       8.17304897
H        2.41175628       1.12741685       6.86190844
H        6.28228283       9.29512405       6.63711882
H        9.26063824       0.98407298       8.93286800
H        4.70142746       1.52201533       8.13003445
H        9.11858845       5.21964788       0.68060607
H        5.59068775       8.10686398       5.60073709
H        2.85211992       7.35941935       6.72502470
H        7.37537861       1.44179213       7.60746050
H        8.26526737       6.57278252       3.71946406
H        1.80718315       1.55405974       0.83176053
H        0.77971983       2.85285163       1.80661607
H        6.96351671       5.21829510       7.25187397
H        0.61581194       7.34626627       8.34620571
H        1.74409997       4.14559174       9.49388695
H        5.71670675       6.94792747       0.87618309
H        1.53860152       1.20672381       2.38439298
H        2.12525058       2.84454370       0.07780243
H        0.14686920       9.46720695       6.73099709
H        4.13729048       3.81276441       7.17286348
H        6.44760752       5.34484053       3.67818427
H        3.23610640       7.97573471       4.84745598
H        9.33298779       0.02814824       2.65757132
H        8.07853317       7.40205050       2.95916986
H        5.02210665       8.87059879       7.84777117
H        8.12067604       0.75323719       5.53337908
H        6.04227114       6.24216557       9.40246487
H        1.00460243       2.48548293       7.31282806
H        4.88867569       7.73085928       0.94469047
H        6.63291788       1.12011850       6.47119045
H        2.45741129       5.59627438       4.56204796
H        5.13803101       7.10042429       2.90710211
H        6.92872381       2.32110143       6.51667261
H        5.59715605       8.92771435       4.88538837
H        3.56494904       1.73264658       4.51511526
H        0.53751123       7.19828653       4.97165775
H        8.59070492       3.10220933       6.98327923
H        6.70008564       4.23727989       2.83236742
H        4.98751974       5.42693472       3.21217632
H        6.98577738       5.83494854       1.31711733
H        6.53012991       0.91085869       1.68634152
H        1.00170946       8.31741238       8.02631950
H        4.55603361       2.22174692       9.05573750
H        3.29523897       4.82465839       8.64861298
H        3.72369242       5.42096424       0.60950530
H        2.17141056       4.19651270       6.18265629
H        2.26884317       0.75730902       1.34027541
H        1.72350764       5.40753269       0.48194727
H        7.48810482       1.97734535       9.47544193
H        8.46674156       7.82481480       5.21611881
H        4.59681845       0.53875411       3.12446785
H       -0.13710356       8.57179737       5.45720291
H        3.57473922       6.78110695       6.42377186
H        2.58210588       4.46478987       0.90126336
H        9.12910271       0.50001943       5.71104908
H        1.53809357       1.19332409       3.84144115
H        1.38282764       1.05696201       8.33221722
H        0.60129231       3.40912151       0.18686843
H        2.60806394       2.47087383       5.04019785
H        7.52362442       1.59328806       3.52784348
H        8.15099239       5.46145010       7.94849348
H        8.13941956       3.24913812       4.07600546
H        6.17853260       6.68891096       4.64873219
H        8.83970928       0.15551087       0.05640351
H        3.29600978       7.73713684       8.91152382
H        2.81932139       2.34173942       0.94553792
H        6.12960243       3.11285615       4.41942501
H        0.98997796       9.10935974       8.97481346
H        7.30213356       0.37095630       4.90221739
H        5.78670645      -0.19742048       1.19970429
H        3.29429674       1.77719367       1.80006313
H        7.65339994       8.09978104       3.93695736
H        7.11215258       5.61489820       8.50539589
H        8.35182858       1.12646413       7.81956720
H        0.84128171       9.48365307       2.81935906
H        8.42235565       3.74838138       1.19979727
H        1.19063771       9.32677937       4.83142185
H        0.02888486       2.39262938       6.58990240
H        9.27943802       4.42045403       5.04051495
H        3.35709071       9.18725872       1.15625548
H        8.46949100       1.86532688       3.70505524
H        8.20174599       0.65578479       1.19585252
H        9.42491436       0.73180038       1.14499927
H        8.75990105       5.72972393       9.24346638
H        9.63920116       1.03050709       6.48740149
H        6.75023079       9.55844975       3.01625848
H        5.53865099       7.60821915       4.14340544
H        4.45973015       8.06236076       3.87122536
H        9.10075855       8.36808586       7.77362251
H        5.22658205       6.17632437       5.47434759
H        6.79718018       8.56741142       8.21650696
H        4.64731455       8.01388550       6.27505064
H       -0.26789564       3.10461140       7.76782274
H        6.33880711       5.89440966       5.43355465
H        5.76167679       2.10043073       7.28768969
H        7.81342459       7.57226229       8.17382717
H        9.07352734       8.12153912       6.43441296
H        3.54282570       1.19448245       3.14902925
H        3.20964336       3.21937609       4.09380674
H        3.85963655       7.74984312       6.86931515
H        0.65398103       1.41875398       0.10851025
H        4.09472561       4.90177822       6.65794420
H        4.80930138       7.39384031       7.31506872
H        7.28354120       4.12357473       4.20296240
H        5.80705595       4.27115679       3.52874470
H        6.93007565       6.68174219       8.04715252
H        7.61036253       1.80018449       5.49723577
H        1.29647636       5.30554056       5.49437904
H        6.34247637       1.22043502       7.84568167
H        6.73572397       2.44200659       1.68420219
H        1.94400024       6.74698353       8.08551693
H        7.95788336       4.96612787       4.20115805
H        8.44239426       8.10228062       1.79421234
H        1.98933899       2.91839647       4.06332922
H        9.04968643       4.39474154       3.60980701
H        2.44521332       3.43206525       3.34968591
H        2.54463887       6.84875536       5.88381338
H        4.94863367       4.60148382       5.79820824
H        6.30679989       7.01614571       5.82248783
H        3.97876573       0.63603616       4.65429544
H        3.47379732       4.84435797       7.55573893
H        9.51739788       8.53813648       2.23832011
H        4.15128565       1.16939855       1.31110942
H        8.61417389       2.07866049       7.67048264
H        8.32289600       5.74235106       5.86908007
H        5.46020365       9.20404148       0.08446891
H        4.03761864       7.20013571       4.95038795
H        4.57176733       2.93152022       0.29492334
H        1.18483436       5.27511501       1.49214506
H        7.53994751       2.71053338       3.07402635
H        7.28135920       6.87866402       4.49650097
H        3.89277673       5.35825491       3.76683044
H        4.12257481       0.49370250       0.46971628
H       -0.22114538       8.18686008       0.97672623
H        2.85777807       9.34260654       3.79712987
H        2.06502223       1.58763015       5.51903677
H        4.90690851       4.69304562       2.08059454
H        6.02153397      -0.15983152       8.70360374
H        2.87324381       2.82956719       2.02940226
H        5.76637840       2.10266376       1.71336985
H        9.32658195       0.49790704       7.55579996
H        0.81386471       0.70908743       1.59755111
H        7.85472679       1.14166212       6.68640709
H        2.33762431       0.10258278       8.77445030
H        8.07923126       1.29755640       4.47503853
H        7.28492212       7.11399031       8.86078644
H        8.13503075       4.36312723       6.54792261
H        0.70803636       1.07451153       3.23103905
H        6.76599216       7.86736202       4.81830454
H        9.14838314       5.25784826       6.92540646
H        2.77106476       2.83764505       8.60172176
H        0.96703458       8.57812881       0.85688180
H        8.14255333       4.64316797       5.55997944
H        1.52101398       0.16974337       0.58084226
H        1.96636033       5.34493351       7.84772062
H        2.78860450       8.31054974       7.39676189
H        0.58379865       5.95701504       8.23927975
H        8.45656109       3.33889866       2.87533975
H        2.89541554       3.39461470       5.97933388
H        1.86808312       4.31402493       8.12358379
H        1.05656946       7.35432529       7.29181862
H        3.19952154       5.87435102       5.27405882
H        6.85704708       0.78982311       3.99243116
H        8.43340015       5.96250296       4.68172026
H        0.00133704       8.54314709       3.93439579
H        8.13076973       7.02059078       5.84973764
H        3.45596433       9.36073589       6.22973824
H        2.89478850       0.97338384       8.59048653
H        0.66889852       1.05008054       4.83159590
H        3.16980815       4.00266504       2.04754329
H        0.66415167       5.86489201       4.99912786
H        8.06578732       8.16044235       6.19919968
H        1.92516696       7.75247908       6.01664209
H        3.05179453       9.17617130       5.29972124
H       -0.02468375       6.62662029       3.98388982
H        4.61152220       1.86976600       3.08423424
H        0.41970736       6.25033712       0.19715439
H        6.48358059       3.34374928       5.67898989
H        7.95538807       0.26473990       7.19996548
H        0.87160683       3.35747290       4.25717545
H        8.71377659       9.70753956       4.75517797
H        3.32017612       3.87566757       9.27993011
H        0.58667517       3.93705201       8.41864395
H        8.20228481       2.25550389       6.33603382
H        0.63615298       5.16537714       9.51511765
H        7.62255430       0.09737498       6.27932167
H        6.97626352       6.29102707       7.04136086
H        0.52241683       5.15870762       7.69738150
H        8.59244347       3.18853164       5.79617929
H        2.65814710       0.20967206       2.57951045
H        7.22043943       6.37436104       5.81478453
H        1.25680315       7.16378546       0.37203488
H        2.30465484       7.05368423       4.91314459
H        4.75828886       2.44095254       1.26864409
H        1.93838525       5.75768185       8.95605946
H        2.01116467       8.12778759       4.96952629
H        3.08175516       6.65656900       4.42483997
H        0.96388513       2.42893004       4.88389540
H        5.77701235       3.48621655       2.01353645
H        4.39996719       9.36066246       9.16931152
H        6.00523376       8.39594078       7.40784359
H        4.47175550       8.14635944       5.05605984
H        3.89974523       3.17851448       2.68640995
H        7.93389463       4.98314428       3.04953003
H        3.54460859       0.66629744       2.17896295
H        3.98299241       8.43931293       0.76734102
H        1.87262738       2.85551572       5.66663599
H        0.54056561       3.16852951       6.03632975
H        0.45907226       9.94519043       8.38563824
H        1.31299925       0.04373042       7.09732437
H        3.05531049       2.26100564       7.10464382
H        0.82843387       2.26714444       0.83277321
H        7.22487116       4.01109314       7.03749895
H        4.00625515       1.98217642       0.37339142
H        0.51221585       7.90249825       9.51298523
H        3.83440089       2.20543242       6.42293835
H        6.13701725       3.12640619       6.76588821
H        1.01656413       4.36089563       0.79328609
H        4.57514524       8.17707443       8.97199154
H        4.64198160       4.37196827       3.42104244
H        6.51462603       2.07008672       4.23305607
H        9.29639816       1.65244281       2.53338790
H        3.64862013       3.17420387       0.51760006
H        6.72185659       7.81115675       3.57739258
H        3.86986399       6.79524183       7.53066349
H        9.26636696       5.47955179       4.14750195
H        2.97240019       4.82779455       3.05106926
H        8.54737282       8.55501556       3.13203502
H        5.90862322       7.42786598       1.93177736
H        5.62982655       8.44362164       1.73688066
H        7.29139423      -0.13994730       9.06558990
H        6.62284279       0.86400706       8.99562263
H        0.10139984       2.04554868       8.58501911
H        6.28073263       4.07107687       0.82429087
H        2.69736505       8.52170086       6.08418417
H        7.23211765       4.37047482       9.20077133
256
Properties=species:S:1:pos:R:3 pbc="F F F"
H        0.26576567       6.92569160       9.58027649
H        6.83874369       8.34037018       1.16783047
H        9.21239758       3.76368666       6.70915174
H        5.68825531       3.73172808       0.88690698
H        7.85968351       4.02710772       4.61648321
H        5.40235996       8.29669189       4.06569433
H        9.40952587       1.92552042       6.80568218
H        0.74518681       5.46677208       7.66218996
H        7.80617332       3.56276107       5.77009630
H        6.49402618       6.03320885       4.50044346
H        6.24225712       4.65463018       1.25953996
H        6.38228703       5.56471825       5.46137094
H        2.04825449       4.34760714       0.41650027
H        7.74952555       6.56044674       0.53185230
H        4.19032621       4.58705664       4.00618792
H        3.63065910       4.11141443       0.38645732
H        5.39007950       6.79102802       5.08591461
H        6.17706871       4.47888279       3.87403035
H        3.29661727       0.40272954       0.71462470
H        9.06786919       3.87954402       1.01017475
H        5.36431694       4.12946653       8.00427437
H        3.25156617       2.33829021       5.64807510
H        5.48348141       0.58318669       7.40615320
H        0.66308558       7.90387011       8.71990967
H        4.79409885      -0.31218588       7.09403038
H        6.67148447       5.00346661       2.18952775
H        5.74458694       7.48311043       6.55283689
H        3.70893526       7.69119740       8.35388756
H        8.59579754       2.94760799       9.05628967
H        7.58003139       6.83024549       5.76022911
H        0.97823483       2.00440526       1.18514574
H        8.85737991       2.19275618       3.19405341
H        7.56645441       4.44501925       6.23470497
H        1.21108091       8.92841816       8.87726593
H        0.80436242       5.30590487       2.79783034
H        3.87502837       6.89185524       0.01389304
H        3.82548881       9.53420258       3.56807899
H        4.58680010       4.36945772       8.87391567
H        1.39227927       0.53122771       6.95402288
H        5.81947374       3.39787960       7.29800940
H        7.54712105       5.42690563       4.29361057
H        2.35011840       7.15170193       3.92194915
H        3.74691677       1.70576870       4.96535444
H        9.13049126       8.77020264       4.11150026
H        4.94306087       9.11129379       8.61693668
H        8.38760471       7.64686203       6.43363619
H        2.94444776       4.91368151       9.07996750
H        8.47894955       3.69677711       7.82951546
H        2.73859930       7.88965607       8.87921524
H        6.91471767       0.31570333       6.28018999
H        2.34755421       6.11146641       8.86559296
H        4.59672499       1.16321063       5.04936266
H        7.56119585       1.41610909       6.22524405
H        6.22930431       8.22001934       5.17100620
H        4.89698648       5.19376659       3.46878839
H        8.02900314       6.73154259       2.28589129
H        7.36375046       0.48953590       0.07802307
H        7.39766073       1.23757911       3.92960668
H        3.48397303       6.44386721       0.81852448
H        6.08270741       0.86974925       0.22681065
H        7.40628815       2.17642522       1.03657293
H        9.37089729       6.75867987       8.25730801
H        7.66539621       2.81893373       9.68392563
H        2.01329184       6.89623356       0.53042805
H        1.08382475       5.68962240       8.74229908
H        6.67313242       3.86666799       4.51958656
H        0.88029820       8.77572060       1.14215159
H        2.79254985       6.01669741       2.84840107
H        7.63407230       7.29010153       3.27686238
H        8.60282993       5.52695370       6.07126474
H        4.35847425       3.09262300       5.12447929
H        0.09090003       7.91283083       6.75708294
H        2.78522563       1.15409958       5.73924494
H        3.35070109       7.98364496       3.83395529
H        0.53075254       8.95606899       7.83375883
H        4.63350964       9.14002419       4.87940502
H        3.86977744       0.33451283       8.21420860
H        4.32666445       1.90745664       9.67230988
H        2.83897710       3.09399724       4.97161484
H        8.19093513       0.37936923       2.47726107
H        1.54754996       5.05016708       1.09775448
H        9.40332413       4.87485409       3.20237374
H        6.05040264       4.60785627       5.14927530
H        8.89885902       2.30858469       7.85609531
H        1.71623397       7.76151037       7.99597645
H        2.42296171       5.42147827       0.76176482
H        5.24579668       2.42787409       4.01365852
H        2.48496318       0.40427899       7.38867188
H        5.63839102       0.47991046       5.27960968
H        7.01076937       9.84760189       1.09468555
H        2.61613417       1.48346579       0.99241620
H        5.53926992       7.01214314       1.18120193
H        5.03177214       3.53450441       9.29639339
H        0.82036263       1.72299111       7.30807495
H        8.50396824       1.50356448       5.11005020
H        7.69971895       5.27918768       1.10338438
H        2.70312500       0.89438152       4.38437366
H        2.03613496       2.18628597       7.02532959
H        0.31688988       3.78092933       5.12157774
H        4.52626085       7.88675451       3.71884727
H        8.23020840      -0.10460827       4.10780478
H        8.89499187       1.89086330       0.65715909
H        0.15766095       4.67452526       0.69610989
H        0.10548105       4.78878689       5.67387581
H        2.12066698       8.66470528       4.52771091
H        4.27030230       1.21616125       3.65689039
H        6.39567566       9.10191345       4.10824537
H        5.04913425       6.82142496       3.96965885
H        9.02493191       8.98580074       9.28636169
H        6.69169378       7.98673058       3.56988215
H        7.40675879       8.36471272       4.51374531
H        6.74064732       6.48334217       9.43047619
H        7.25645113       4.91306829       0.07206548
H        7.06119919       4.17851782       3.28012848
H        8.31698608       1.61017966       7.06371737
H        8.90758514       5.33343983       7.85895157
H       -0.01960693       6.40089369       6.08666563
H        3.47653794       8.72064114       2.55836940
H        0.33730590       1.87845898       2.15749645
H        2.69289327       9.07801628       6.17061234
H        2.40494585       1.30875134       8.26443100
H        5.06185007       4.57398081       5.17179251
H        3.79806423      -0.17030296       5.67526054
H        7.96348524       4.05323124       1.99474704
H        3.63079190       5.73495531       3.44048262
H        5.35108328       4.86781836       2.20272660
H        5.47650576       1.43335176       6.12118053
H        1.74250817       3.57696891       4.82850933
H        8.78026485      -0.39953929       7.59912157
H        8.05063820       1.37304950       1.33822787
H        3.04239154       4.72007036       4.07406139
H        7.07995510       6.75619936       4.83500147
H        5.83732653       0.49796519       1.67320323
H        1.22193658       4.55604458       3.78436327
H        1.84488988       4.20601034       2.88337469
H        1.75903654       5.02367926       2.20596862
H        2.84936833       6.60501480       4.79889917
H        5.26932859       2.93878794       6.43878555
H        5.41863680       5.39415216       6.21982527
H        4.67289734       0.90768832       6.73402882
H        5.70034885       4.30982542       6.28543472
H        1.48511291       7.64494801       2.79439521
H        3.29034328       1.13004339       2.99677062
H        8.76264858       2.80118918       4.94187880
H        6.60530901       2.24451280       4.54176664
H        4.84872103       9.32309818       1.87972867
H        5.68733311       6.46150541       6.35422897
H        7.56805086       3.60917401       8.91193676
H        3.87765336       2.09793282       1.61932898
H        8.27402592       0.86446559       0.54880220
H        1.00803697       1.15959203       4.94359112
H        3.04559517       6.77512693       2.15974259
H        4.34071159       0.79738748       2.20347714
H        9.01720810       6.74439669       0.91182101
H        3.46823931      -0.05606304       4.62844896
H        4.08024693       2.41911435       4.22359753
H        5.78954649       3.90755200       1.98795116
H        4.46393490       9.86643219       0.69215834
H        4.56419849       4.69541121       1.11675560
H        5.30246544       1.06697381       8.45843315
H        2.90898561       8.92784786       8.21143246
H        1.95719850       9.29293633       1.06932867
H        4.86047125       5.59531450       7.79370689
H        5.07706404       1.77906871       7.08133698
H        9.17282009       2.77902913       6.20722151
H        6.87200642       6.56258106       2.17752600
H        5.97470570       5.51839256       8.42249012
H        0.93347895       3.48834157       4.09295177
H        6.48230982       6.82879591       5.75433254
H        6.47661448       2.69986439       1.40727139
H        1.48125982       0.78570110       5.69819307
H        0.51648229       8.30251122       0.26367506
H        7.91796303       2.58927035       5.97754335
H        9.24375153       2.34497428       1.42405677
H        3.78156447       3.05365682       9.10791779
H        4.12550306       1.69912434       6.00256062
H        7.09592533       8.66481686       6.94790936
H        8.27999496       4.72192383       3.11560059
H        2.19800735       3.30685854       6.04162598
H        1.46538639       3.15105295       7.14982605
H        1.03453219       5.64949989       4.06706715
H        3.92239499       6.66690779       2.60819960
H        7.06103134       1.04876840       2.40303278
H        1.59702921       5.99540472       5.20614004
H        9.31862450       0.98654050       6.58288145
H        9.01736450       5.54030991       4.99642801
H        0.40261382       1.91803086       5.25917673
H        6.02976418       1.09047747       3.71013665
H        9.03369713       3.80625749       4.21783257
H        1.18309557       4.88002920      -0.03464181
H        2.69920850       8.35934448       7.11473942
H        9.13199615       8.03168488       8.52108765
H        1.85720181       8.98160648       7.70004511
H        6.71800709       7.12320757       6.76938295
H        8.03400040       8.35838985       3.53736234
H        5.83041382       1.81987405       2.90700245
H        4.33267164       4.18265772       7.68829155
H        5.33195925       2.76613212       5.13617325
H        6.28643179       9.21287060       7.64397669
H        2.24761558       5.06005144       3.35905743
H        7.82893944       8.83708000       6.08596516
H        4.16793346       3.95048380       3.02528858
H        0.06243408       3.43921089       2.14317226
H        6.58361816       4.60709953       7.65586662
H        3.00008988       3.91121292       8.57209682
H        6.98776054       9.11563587       5.56492519
H        6.67643070       5.03012800       6.67278099
H        3.06606197       6.27034330       7.99906063
H        6.29953051       3.52922869       5.56214714
H        3.02417016       0.51180243       2.23839283
H        7.23795891       4.67795801       5.15252829
H        2.04907727       6.57934380       6.62501144
H        4.14837885       4.06797934       5.24546194
H        5.91383743       4.04030132       8.84188366
H        4.32306099       6.84004688       8.42106915
H        2.24351144       7.86723566       6.06099176
H        4.53560495       6.01224995       1.35964262
H        3.84614158       4.61821365       2.35519052
H        6.97433472       7.81238985       2.56430340
H        4.45601511       8.31973267       7.74897385
H        5.49602652       8.63159752       5.85467100
H        7.34991741       9.30825043       3.28983307
H        3.36583042       4.86354017       0.88862240
H        8.69431114       6.01955843       1.74160123
H        4.61447620       8.71415043       2.74981618
H        1.26309681       6.60324430       7.73762846
H        3.18943930       1.59023523       6.63662815
H        0.76361203       2.53816891       6.61850929
H        3.96806669       1.45439470       7.29991245
H        0.58683980       7.41745996       7.62179470
H        7.61835432       5.20828247       7.35949516
H        1.81304705      -0.17445238       2.21373844
H        5.29709721       1.88051736       0.47814494
H        1.47740233       0.93315899       1.37070215
H        1.75563562       1.21138167       9.79810715
H        4.28654623       2.07006598       8.21658993
H        5.96573830       2.16026163       7.55951118
H        2.00529099       6.24073982       1.35843551
H        1.72126949       7.74074936       9.29959297
H        3.78045464       5.60789537       9.31108665
H        7.20767117       0.74409103       5.26955891
H        2.24625182       4.36472225       7.58369398
H        4.41253757       3.02977538       0.69196397
H        6.16652155       7.35636091       2.06766391
H        4.77282810       6.38337040       5.72956944
H        0.06286079       3.77911520       3.18469715
H        3.93542242       3.40542221       2.14274168
H        8.91882706       8.41692638       2.95091820
H        6.26840210       5.38244629       3.31254029
H        2.78279757       7.99663782       2.36887074
H        8.52908421       9.26604462       0.80718935
H        8.82160568       7.87491560       0.82515025
H        0.05739195       3.03308225       7.36613846
H        8.01600933       2.93822145       1.91264272
H        0.89120466       1.38972676       6.23056221
H        5.15863132       2.62830377       7.91104126
256
Properties=species:S:1:pos:R:3 pbc="F F F"
H       -0.01776184       7.69871235       0.67058313
H        8.34063911       1.20594656       1.08054125
H        7.49655533       4.41542482       5.65158653
H        6.16823292       5.32824516       0.21074349
H        8.78109837       4.95580482       6.29422998
H        4.70138645       9.19161510       4.39290476
H        1.97854853       2.26184487       4.11386395
H        2.33948231       3.50379825       3.07417417
H        4.43254328       3.49570036       4.77766371
H        9.26205540       5.69399166       7.05672836
H        7.21516371       5.90430546       0.78442383
H        5.75502348       5.37988663       5.48714399
H        0.73002726       5.61717272       1.42651427
H        5.45878887       6.24447155       8.75335503
H        3.95649099       0.98181504       5.35154057
H        1.85820997       3.65899491       9.64923954
H        5.63111591       8.66122723       6.56978846
H        6.91923952       3.21470070       3.44875693
H        4.17708397       1.87599790       0.56324190
H        1.21340382       0.67402142       0.90992647
H        5.66065550       3.36540580       8.52264690
H        2.78602648       3.86445904       7.66647005
H        4.48951054       3.46053481       8.73740196
H        8.42178249       7.56281805       7.63920927
H        7.17606258       1.28805172       6.78390074
H        7.79480553       5.48747683       3.07455921
H        4.58152199       8.40403557       6.82489634
H        3.54480529       8.92779350       9.31814671
H        1.31161582       3.10516357       8.90668297
H        0.44616771       4.14116240       6.96854544
H        1.26798332       1.73340976       8.68466187
H        0.50681531       0.40706000       5.53004217
H        9.04218578       3.41194630       6.68466187
H        2.46982169       7.35028839       1.31771743
H        2.20088959       6.35214901       2.60192800
H        3.14393830       8.37477684       1.07211435
H        3.62875223       8.79488182       2.22335315
H        2.62210321       6.34245491       5.08841848
H        0.10702975       9.80352688       8.95106506
H        7.73235178       3.52554369       8.24888897
H        6.63100243       4.89768887       4.76219893
H        1.08596647       9.50863266       1.74582088
H        4.88115263       4.19196653       6.56071663
H        0.68599594       8.61576176       3.30443025
H        2.83380222       8.20992374       8.79006004
H        7.40276766       2.89595222       8.93736553
H        1.65693986       6.27354908       8.93977642
H        8.96371365       3.36536145       0.81319028
H        1.73486018       0.10912276       7.88899040
H        5.81214762       3.27674747       7.00545025
H        0.44738626       5.32555199       8.89156628
H        6.48420382       1.20010197       5.80787849
H        9.01519680       1.50427413       4.43636513
H        4.12878370       5.05350780       3.45816612
H        4.39826727       6.04815626       4.22043228
H        7.06926584       7.49736738       4.69901323
H        1.79184043       8.76795864       4.76964235
H        0.42739716       9.16190434       4.33067369
H        3.82406259       7.39226580       0.86915261
H        6.49968863       7.86597204       3.02628255
H        8.93269157       2.45760846       2.30132651
H        3.99882126       8.39874077       8.53305340
H        8.01455688       2.12611651       1.94219553
H        1.85530531       5.33974075       9.29371738
H        0.68074757       4.32657719       8.06628132
H        6.68634224       3.38773680       4.62346554
H        0.67978966       8.31064796       0.00151000
H        3.00697780       3.89837098       0.96768105
H        0.34172705       7.34755754       5.53365755
H        9.56833553       4.15857172       5.82033205
H        3.26858616       2.68943739       4.72296762
H        8.61347198       2.06983304       6.93434143
H        2.00899911       2.49071288       5.49921513
H        4.56467867       7.36320782       5.85728979
H        0.90827656       9.57173824       9.52207565
H        6.03011227       2.38236523       4.18844271
H        2.76350355       8.62050724       4.24277067
H        1.67943740       8.47935867      -0.03996863
H        1.96189976       0.61269921       3.05607557
H        7.10651922       9.10578251       1.11943758
H        1.46241927       6.33537483       1.53761232
H        0.69927567       5.79247808       4.51477814
H        7.01415682       5.20741510       5.90795994
H        6.64281750       2.10780072       8.48240376
H        1.83831251       7.95892143       8.47196102
H        1.44757938       4.83924818       0.81004786
H        3.94282460       3.02267051       4.00210810
H        5.73799419       1.12491083       8.11643696
H        6.68324804       7.80356216       7.41808891
H        7.17521858       5.77312803       1.98820591
H        2.64897990       2.45867252       2.01180816
H        4.51059628       7.62933064       9.16675854
H        6.10737467       0.99574661       2.47442889
H        0.06113194       0.63552874      10.05533886
H        7.94625235       2.79725051       4.98428535
H        7.78374052       2.66188669       0.58097827
H        5.95873880       0.52019459       6.61441278
H        2.62531710       3.32000256       6.03541327
H        1.87210560       5.66383839       4.60320807
H        5.57921362       7.44614792       2.77325010
H        7.55389881       9.32684708       3.25158715
H        6.05904579       1.69096148       1.07296968
H        8.74101639       4.80227232       4.11680079
H        1.18898487       5.60648966       5.46914911
H        1.53090906       1.60621190       7.40500402
H        4.35746717       1.46982265       2.17685270
H        6.05492592       0.72616357       3.76288629
H        6.81270313       8.43427181       3.83740664
H        8.25820446       1.15787411       5.16804075
H        6.02512836       9.01696205       3.43542528
H        7.36838007       6.59839535       3.64725351
H        4.97640085       6.73358917       1.18131220
H        6.68486404       2.98439002       0.38369206
H        8.79893017       3.63454700       2.44809318
H        7.94392443       1.77005887       8.09890938
H        0.25667387       3.95976853       0.25172275
H        0.16839151       7.91211081       4.10597992
H        7.12915707       6.85316324       2.48697162
H        0.15678287       5.65043259       0.54364830
H        6.13233900       8.68010521       4.95767355
H        2.70217323       3.56909728       8.82901859
H        3.74685502       4.64443588       4.49002695
H        5.04403448       1.88448870       4.23355389
H        5.49846697       5.71606636       2.53734589
H        2.92773032       7.83226776       4.86253357
H        7.98520517       4.17512274       4.72111607
H        6.25333595       2.60791755       6.07108212
H        4.56844664       3.00112438       5.73063707
H        9.54871941       1.29055655       8.60737514
H        8.66968441       9.49800777       2.80133510
H        3.19156408       6.15949345       4.29694748
H        7.75627375       6.66898441       5.22967958
H        6.13148785       6.98844862       1.17564642
H        0.71243519       3.91460967       3.30374813
H        8.63546562       4.57326031       1.17795789
H        2.29727745       4.06809711       2.25882268
H        2.77896047       8.26601219       3.33222699
H        4.76961708       2.74588919       6.78362656
H        4.93405962       3.61733031       7.58613443
H        3.67663980       2.25048685       6.67108774
H        6.76370716       2.68095064       7.51660442
H        7.95036554       1.64806497       6.15271425
H        4.76976871       0.36723906       3.22010684
H        1.85774410       4.76370811       3.63819480
H        6.89445496      -0.49463046       5.72261429
H        3.93209076       9.24549770       3.56953311
H        7.84036255       5.30365753       6.73708963
H        9.07808495       3.38410187       9.00933647
H        6.77421427       1.63365674       3.09708452
H        8.11096954       7.69909906       5.60792303
H        2.84888411       0.60519004       1.36306047
H        4.43197393       6.14281321       8.68354988
H        5.15980768       1.47377479       1.54820943
H        8.80037308       8.13476944       3.02343559
H        2.76066852       2.93260884       0.81289369
H        3.12619662       2.12984133       3.07247329
H        6.05980444       3.34300280       1.03013253
H        3.48987913       5.82951641       9.29690266
H        2.33455133       5.49864960       8.38189030
H        8.54054451       2.69967008       6.01537418
H        3.85918212       8.95784187       7.39378548
H        9.18006611       8.22476864       1.79301167
H        2.59229398       4.84852791       4.67498159
H        5.73021841       2.17835712       7.78775024
H        0.27422258       1.10548019       3.26213765
H        8.19819927       6.89389610       1.38247514
H        5.09369230       4.63546944       7.55298805
H        0.91003287       7.20366907       2.65381169
H        9.41872978       5.09942007       8.09674454
H        3.51970363       7.82782698       2.50168681
H        3.31260753       0.38511923       7.87665844
H        0.96234584       8.62213421       8.43605709
H        7.09346485       3.22922826       5.53505039
H        4.33230352       1.02479172       7.86384058
H        3.67543364       2.24328852       8.49800110
H        3.57708836       3.25722790       7.49900293
H        6.77425194       5.24146271       7.42873526
H        9.00036430       6.81370831       4.68358183
H        1.68800819       4.15081739       7.42851400
H        9.20679092       3.44055033       5.09760046
H        1.79117048       6.78124857       0.51804435
H        4.32389069       6.23362255       2.79473090
H        9.50051785       1.41967249       1.42847848
H        1.36162245       6.25545359       3.90475011
H        0.59122634       2.73060131       9.86849117
H       -0.18647961       6.82021523       3.33483076
H        8.14254284       3.84601140       3.71824336
H        7.60911369       8.81170082       4.51210785
H        1.26385629       3.16788650       5.16032696
H        3.61306596       4.24586725       7.04290962
H        3.39149022       1.82829559       4.11746359
H        9.26181126       6.82134581       1.24922645
H        2.01135588       3.10711002       7.45362282
H        6.02113628       6.06064606       6.98600006
H        8.29347134       8.66992760       3.68154812
H        6.66977310       8.62115383       6.85662889
H        1.53599668       6.24784374       6.53628302
H        3.82081056       3.35080194       6.50283337
H        9.28952217       7.53459501       6.59659767
H        3.28603578       5.61272335       2.38339353
H        0.71912831       6.94200039       9.10370827
H        5.73744059       2.90688276       2.10371256
H        0.58513069       2.61434388       4.30744410
H        6.45677900       4.01429415       6.43476152
H        3.02741122       5.77436876       0.75044423
H        6.59593487       7.11168909       6.25190449
H        8.78160954       4.00899601       7.85753393
H        5.20198679       4.99506330       8.52070808
H        7.02929163       2.28965330       4.15307808
H        1.52920926       9.13298321       0.76241171
H        5.49893188       3.16469455       5.21867371
H        2.01830912       7.21739674       3.55067587
H        1.69010234       2.53207445       1.40721917
H        3.72530413       4.87548637       7.88242674
H        3.87006235       5.40571117       6.83843613
H        1.72777760       7.63916206       5.21882343
H        4.88357830       5.94202614       7.29905748
H        5.23975849       2.01851106       2.52984595
H        6.82277775       5.48851204       3.66488385
H        4.46792746      -0.18779843       1.59240913
H        7.68243980       6.29974747       6.43261862
H        6.68669176       9.24238968       2.18461943
H        4.41072083       4.49135733       8.70020103
H        7.79669666       5.14515448       1.52905071
H        4.54204750       8.19963360       1.11539185
H        1.84867644       3.94383955       1.29984748
H        5.42175817       1.29924107       9.75683117
H        1.11936939       3.61767888       6.32027864
H        4.23833418       2.46813154       7.63325644
H        1.12097216       4.93661070       7.30745649
H        3.66876602       1.24800742       1.28290069
H       -0.52406222       0.35245472       1.38197291
H        5.66010666       6.33682299       3.45637488
H        1.65868235       8.82079220       2.63923597
H        0.82042027       1.03279269       2.02534366
H        5.08273697       3.88956237       0.43292838
H        8.23279667       3.00723433       7.37717485
H        3.28674912       6.91138124       8.58274746
H        9.44536972       8.71684170       8.80586052
H        1.73648036       4.08696556       8.40203190
H        7.72277784       8.00970745       6.72424173
H        4.62701797       8.20979404       3.53873801
H        3.32146263       4.38383389       3.59950066
H        4.62563086       7.71373558       2.34161019
H        7.56514835       3.99655032       7.12218666
H        1.50694036       1.54127550       3.21145725
H        4.84115410       3.70191360       1.63679910
H        7.58512354       0.75689000       2.28598833
H        7.48606539       4.58785152       3.97044373
H        1.44972372       7.92748308       0.99641234
H        1.25569773       1.66126561       0.38777533
H        8.64125061       7.80623865       8.63687515
H        0.90397900       3.09409285       7.81875420
H        9.49694729       1.68289864       0.12685937
H        0.66724020       1.39143145       4.58674669
H        5.14491653       2.70260119       0.52911770
256
Properties=species:S:1:pos:R:3 pbc="F F F"
H        8.85343361       0.54526097       8.02703571
H        7.78324080       1.62280047       1.90949667
H        5.31651497       1.70859182       2.64026427
H        6.38789940       7.55748892      -0.07000497
H        0.31520110       4.05357885       5.23040390
H        5.31065273       8.05708599       4.80633640
H        8.95337772       4.00952721       3.13216043
H        3.91572642       2.67335820       3.32871795
H        0.73908633       4.11766434       3.43917704
H        7.09708691       4.58709288       8.52135372
H        8.29038715       7.09495831       2.32732987
H        6.04854012       4.72564840       6.39120245
H        1.44976127       7.41752911       2.96527314
H        5.85897398       6.48212337       8.99121094
H        2.45696330       9.49804497       5.19769144
H        2.03638649       3.52488017       1.72658169
H        3.61221886       5.47723866       6.91336107
H        7.72984171       6.35152292       3.57733822
H        4.25321817       6.87305975       7.76068592
H        3.62022495       0.58733553       0.84546077
H        5.03552437       2.86672950      -0.09610917
H        2.88827753       4.16026020       7.93065023
H        5.57008934       2.54231167       8.25652218
H        7.31520462       8.01570225       7.64645863
H        2.48396158       3.20879674       8.01969528
H        2.81809664       6.27098322       1.48073745
H        2.51743746       7.32632494       6.78533936
H        6.15361166       0.74533814       8.47922516
H        1.05245399       2.33332777       1.96858084
H        0.59249449       5.88143206       8.37346840
H        1.32881236       1.02336049       9.32806492
H        1.42707956       1.10566282       6.31195879
H        0.54095823       4.76368141       6.18917751
H        3.97319412       6.45996237       5.04899168
H        7.32946348       7.04449701       0.22184075
H        2.61778784       1.39107454       3.63295865
H        4.50479460       1.59910977       1.69423151
H        5.32743025       7.50200748       2.68217230
H        8.50283527       1.02883184       0.95809221
H        0.76036620       2.61453414       8.15721130
H        7.13186550       1.99581397       5.28171968
H        2.59639478       0.81618351       0.96275246
H        4.84205866       4.32507038       1.22751880
H        2.04943395       8.69478893       3.52601767
H        2.61277604       8.73496914       6.38095188
H        7.56574106       0.58693546       8.45039463
H        1.57468390       6.57334805       0.91565955
H        6.36978769       1.61012304       2.21079850
H        6.82341433       0.39090946       7.25944757
H        6.34100008       5.35569382       8.99214268
H        2.75417018       5.45693493       7.66211891
H        6.99057007      -0.11388615       2.20385671
H        9.14648533       8.62007141       5.99960423
H        4.56485748       1.42786872       6.65070868
H        5.25529480       5.90680647       3.15748239
H        4.92108107       6.43184471       4.40004826
H        2.96271253       7.27977371       5.65408421
H        1.82563508       2.62759066       3.54433823
H        3.44323826       8.24475384       0.53813410
H        5.89822435       6.99312019       4.12177706
H        7.82264471       2.88435340       2.89671993
H        2.83589411       9.39261246       9.61855507
H        7.88839674       0.60142177       3.82213712
H        2.47458959       3.69132757       0.59918123
H        8.40133095       7.60928822       0.55306488
H        0.69181961       5.98820114       3.40145779
H        0.71976066       7.17430973       4.82006645
H        5.78362942       3.87643242       1.91990006
H        1.27069223       8.46511269       2.75855398
H        8.90773582       3.82686019       4.23256254
H        2.44148397       1.11517501       6.01275063
H        9.45956898       3.03387022       5.27626371
H        0.12954092       1.02173090       6.17752457
H        5.03008652       5.27083254       4.13444138
H        2.35142660       1.10832393      -0.04854116
H        5.84304857       3.07403398       3.89823580
H        5.03019571       9.60065174       3.53441739
H        9.21148396       6.64080954       4.10197973
H        2.51376987       7.69873857       3.10317278
H        5.36705351       7.33301163       8.39848232
H        0.71797717       6.86617374       0.15012050
H        1.57211423       7.61735392       4.19200134
H        5.95459604       6.25920296       7.45282936
H        7.70521879       2.05359817       8.62561607
H        0.71380794       9.32436275       8.55616283
H        3.35623860       7.60175467       1.99425519
H        2.90186620       3.41195607       3.59477735
H        7.75106096      -0.05853839       0.35196945
H        7.82741404       6.51557541       7.58521366
H        6.74758720       4.43236208       1.84750795
H        2.14606428       2.31734705       1.55416894
H        7.48737049       8.77172852       5.92440271
H        6.68856525       8.67324448       0.60603583
H        9.23742008       0.62523568       2.85812950
H        7.69301796       4.81907511       3.34036374
H        9.77540112       1.54398048       8.64221096
H        6.49104738       2.08406425       8.52021980
H        1.16878617       3.58851004       4.83484507
H        2.89842868       5.02819633       4.15862465
H        4.35738707       7.03535318       0.92977732
H        5.46855450       7.62424803       0.62525958
H        8.04017067       8.39396000       3.40412855
H        9.21372890       4.11107445       7.75414419
H        2.55606318       5.02781773       5.24634886
H        3.13212180       1.80443013       7.85234642
H        5.15579653       1.51469553       3.72583270
H        5.89231110       9.08315182       4.37971210
H        6.41240454       8.55898380       1.64558899
H        9.02999020       1.56591058       7.17938805
H        5.04119873       0.26773608       6.29603052
H        8.60045147       5.49387407       1.32523751
H        2.32920241       9.04210854       2.45507026
H        6.83269691       1.02765357       9.23999786
H        7.85616779       4.82984543       1.65135586
H        8.14660835       3.19112515       7.69624662
H        8.45104790       2.27946806       0.95557946
H        8.49266720       7.59051371       7.75558472
H        8.81503868       7.54128647       3.25704908
H        9.09834862       6.45200205       1.31003833
H        5.88952780       0.83530354       7.46061230
H        2.87151814       2.68964052       0.01234396
H        2.57828331       4.12589169       6.87242126
H        5.87954044       1.84188437       4.92534256
H        4.43279171       5.31691504       1.23284030
H        2.62876463       8.14031315       1.60787809
H        8.57011795       2.92955446       3.66300726
H        5.07181120       3.32730460       7.70110798
H        3.39229298       0.18000874       7.55582237
H        6.48583269       3.41085529       7.18039274
H        7.49136305       8.06152248       5.16821384
H        4.24431801       7.55713177       2.99280572
H        6.23425436       6.86128664       5.16133404
H        6.07101631       6.10046482       0.40176776
H        2.66400504       2.99247575       2.50473380
H        8.67994308       3.56979299       8.42701149
H        4.30590916       3.58592606       1.57227778
H        4.38807631       7.56427383       4.51103163
H        5.46390152       1.84880924       9.05198002
H        5.89891052       3.65380788       0.47815543
H        2.06457973       2.18939638       4.55901241
H        5.74738646       4.12978125       5.35040998
H        9.26889133       2.89456534       6.76634121
H        4.74654436       1.20400298       0.47181702
H        2.63645411       7.04202557       4.68081427
H        8.54638004       5.47198248       7.60390329
H        5.73333549       2.25056195       1.39060843
H        6.79762745       6.19950628       4.44566870
H        1.19079781       3.75143433       8.24711037
H        5.67644739       8.96699047       1.03559101
H        6.12196875       0.42062217       4.96916056
H        3.58645964       2.17330599       1.13275099
H        1.94367588       8.98403168       8.22328663
H        7.36965370       3.39036202       9.09139347
H        8.24408436      -0.23894818       2.99663854
H        3.29654670       1.73208380       2.10229802
H        4.21160030       2.62328410       1.92281520
H        7.31573057       2.45258498       1.21544278
H        4.01617098       2.36788082       9.61658669
H        1.47178853       5.94872761       7.42661381
H        1.20097387       3.89942336       6.16087055
H        4.41447592       8.02677441       5.86546612
H        0.91918552       0.08810505       0.52430338
H        3.75207663       4.62570190       3.47287059
H        5.71447992       4.06988668       8.78323555
H        8.03830051       0.03967569       4.84748459
H        0.84958732       6.30087423       1.69661319
H        4.16249800       4.40595436       4.60546350
H        6.59812450       6.91385841       1.38010836
H        9.38900185       3.90052652       6.25434160
H        2.40468454       6.92395163       0.64036769
H        4.45244980       1.93726814       8.72007179
H       -0.33065444       6.47810936       6.19461536
H        6.70457029       2.35645604       7.52409220
H        8.07280159       9.00831699       8.67404556
H        3.52021289       1.46801257       8.82267380
H        3.80034828       3.47254038       7.43092871
H        4.97751379       5.60256624       9.91496086
H        2.57563138       4.33456373       2.83063340
H        1.95320892       3.19017720       6.40176678
H        5.60213184       0.98920709       1.67238951
H        5.18492603       6.84496546       9.65784931
H        7.46015120       5.72128630       1.39225674
H        8.91835880       1.51750946       1.71581304
H        5.53931618       6.56986952       2.09666800
H        8.87408447       9.56418514       1.66085756
H        7.37616444       7.94448805       4.12696743
H        0.78746110       5.42687178       1.06170714
H        7.22248363       0.53267479       4.91228342
H        0.42066097       2.80170798       4.04875946
H        2.77531767       6.19324350       8.35451126
H        3.63043141       0.73537999       5.90655422
H        1.05386162       8.52495670       3.82969570
H        2.33263874       2.31637645       5.81979275
H        6.51922417       5.27796316       7.77563286
H        2.18627691       0.90023798       4.78368855
H        8.10237026       4.88527679       0.55536926
H        2.62636733       6.13829756       5.18376780
H        3.18458414       2.97606850       6.04928589
H       -0.17018743       4.67902040       3.75966525
H        3.95192146       1.69776022       5.31516027
H        8.06818485       6.18875599       9.01680470
H        5.16172695       2.51724291       3.36340737
H        3.49502921       2.22331238       6.52518654
H        6.32459688       3.39361548       8.25691414
H        3.62929678       3.32740736       0.80372024
H        6.68444061       6.96793079       8.56699085
H        2.42053771       2.15934348       8.69763947
H        7.05896473       3.61462331       2.33908844
H        4.57040453       4.41801834       2.61690521
H        1.78677702       9.46139622       1.19138002
H        3.96134186       0.30997917       3.67722988
H        5.66605806       8.36718464       3.19846272
H        2.98007441       3.56096244       1.60134041
H        2.16979146       3.69158006       9.01335621
H        4.40733767       4.43905067       6.28365946
H        8.86578274       8.59552383       2.42853498
H        4.69307327       5.00256252       7.32886076
H        5.86280346       0.87124974       2.93238831
H        5.34734440       5.78585768       6.18794155
H        5.61565065       0.51219916      -0.01893611
H        7.05257702       7.19309998       7.09023333
H        4.64507055       9.55997658       0.29048258
H        2.01178575       6.36989450       9.50482082
H        8.95344257       5.94893217       2.44116735
H        4.32536888       8.91706371       8.42554855
H        3.40425062       6.11235285       2.53120780
H        4.92862272       3.32025504       0.83031505
H        2.45239925       3.66749811       5.61637163
H        3.77367449       2.55963540       8.50576973
H        1.40848529       2.03546262       6.66963959
H        4.03595924       0.43750158       8.99268055
H        7.16151905       0.77166522       1.15031362
H        4.61293936       8.77808475       2.62031245
H        2.65845060       8.14719105       9.19436550
H        0.74310058       0.84310019       2.21296525
H        8.43133354       1.28630316       8.74926949
H        0.65382278       2.08646274       0.67031246
H        4.18350887       3.59172463       8.56185532
H        0.25618327       0.98579276       0.58282107
H        1.72642756       2.81345320       9.42126656
H        5.60222149       7.32472754       6.66129160
H        4.43948174       0.39077380       1.31479287
H        4.62432432       0.51687866       2.58106780
H        2.98510528       0.15619691       1.71380341
H        6.97865105       6.05641603       9.04266644
H        4.65203238       6.85659742       5.89710474
H        5.60314274       5.25535536       1.11589158
H        8.56519699       1.61418784       3.63647985
H        5.84708595       4.67962408       3.10811853
H        7.72296333       8.05983162       1.05110776
H        1.76454484       1.69318736       0.69722301
H        8.57921219       0.44525960       9.40765953
H        2.86149406       3.05298567       7.00000381
H        2.18519473       1.27457559       2.48114085
H        0.59878600       1.81603873       3.51633930
H        7.49918795       1.82152557       0.19673394
256
Properties=species:S:1:pos:R:3 pbc="F F F"
H        0.83081573       0.57823038       7.87731409
H        5.58277035       8.92347717       1.69243073
H        6.57584715       3.18030953       1.33130026
H        9.22834778       6.46834135       8.95100021
H        0.23734450       5.59086657       4.42192984
H        0.54061967       3.88417482       8.66864777
H        8.76734924       2.48802614       3.73568416
H        3.83420038       2.67945123       6.69698143
H        0.86834663       4.27780199       2.54363704
H        9.06043720       3.46783471       8.46415234
H        8.40216827       8.51542568       3.62034082
H        7.19117832       2.99691010       4.17850971
H        1.60451376       7.62194061       2.80767584
H        6.74017668       6.60845089       1.32670081
H        1.21222270       6.91245985       3.84298825
H        7.76183319       3.21329808       2.76809359
H        1.58113515       4.58064365       6.94164276
H        9.71677113       9.11582470       3.99336243
H        3.90491509       4.40142632       5.58673191
H        2.27261591       0.72548163       0.17795733
H        1.42846799       5.35719728       8.29010963
H        4.12213421       6.78461981       9.07677460
H        7.28473282       9.80710316       7.17300940
H        8.39566898       6.89549255       7.70731401
H        0.38603267       5.24532080       8.84342957
H        6.64559031       3.83045721       8.71945477
H        3.84791756       6.04379606       5.27021980
H        7.45466137       8.07892323       4.56914902
H        1.43257463       1.82745647       4.77850056
H        0.67359555       7.43075705       6.89982605
H        0.88522577       0.49669179       0.84511679
H        1.59337127       0.96671093       6.28735685
H        8.65934658       6.08178377       3.18013763
H        2.30567813       8.77322197       5.83395910
H        8.60774517       5.20405960       7.07308435
H        4.84201956       2.06660271       4.22395134
H        2.97561026       0.00074763       1.13207042
H        6.12985229       8.44365788       0.84726191
H        9.08786011       8.76451206       1.52352977
H        1.76551116       3.91821146       4.78652811
H        6.69940090       3.49643898       5.39394093
H        1.35660434       2.02276397       2.09774733
H        4.85179949       4.41972446       3.57323122
H        2.87723947       1.22117710       4.11283684
H        6.68686342       9.67477417       8.24116516
H        0.41985479       0.27629352       6.11737347
H        2.56907606       7.83783436       0.64889371
H        6.33572483       2.09438300       2.40009093
H        5.51763821       3.68817854       6.50812531
H        1.32314169       5.82102680       9.38604832
H        7.89587784       5.36661100       6.27612019
H        7.89979601       9.52770233       1.71329808
H        1.63942838       4.71964264       5.34463406
H        3.50805044       1.52956760       6.54372454
H        4.11203814       6.86418962       4.44886541
H        3.03948450       5.25214243       4.11058998
H        5.09858656       6.24931765       6.08942080
H        3.02564478       4.27368355       1.09067345
H        3.49053264       8.51463127       2.15090871
H        7.16313267       7.06356907       4.06462049
H        6.52627230       2.19637823       5.18217897
H        1.06235182       8.90990448       7.74006510
H        8.59541798       1.64287376       5.01120996
H        3.74742603       3.18518686       0.55661422
H        3.44392157       8.02963257       7.79396057
H        2.51914215       5.50375605       1.09920132
H        0.21872959       4.75339508       6.53910303
H        5.79978085       5.63531971       3.41707826
H        0.94260019       7.98236609       3.63914967
H        8.72593975       3.48765397       2.85530424
H        3.10831761       9.01169777       5.32070827
H        8.63832092       3.38955498       6.01066065
H        8.91478157       1.63104367       6.41728926
H        6.54455757       7.70145178       2.52550030
H        1.03326893       1.15394032       9.23497486
H        5.53017473       2.41940260       5.88509178
H        6.18884659       0.84952426       4.32093239
H        1.29601848       7.79937601       5.45057583
H        0.40182453       8.59873867       0.59402144
H        5.02545500       7.93339396       7.09902191
H        1.15183663       4.44824886       1.03355837
H        3.13270974       0.21621177       4.33769274
H        7.28036404       4.69108391       7.46540213
H        8.74452400       1.39909863       0.49164557
H        0.45918393       1.63231897       5.49945116
H        5.55935383       7.79025936       3.87099791
H        2.87414837       2.58634281       6.24101162
H        7.94314289       9.21301079       0.66199398
H        4.64962149       5.76987839       4.30254650
H        4.84908485       5.26265812       2.77089357
H        1.75187385       0.56763548       2.44871950
H        2.03438115       5.65832758       7.04709673
H        8.91824818       7.85518169       7.69363642
H        8.04410553       6.94027472       3.01026249
H        5.53196239       5.30922651       5.65413189
H        0.94833398       3.63887358       7.53260899
H        9.13260555       3.02164745       1.72948599
H        1.16779029       2.90949631       4.03908920
H        3.05783582       6.69050407       6.61992455
H        3.96960020       8.30669785       0.55028582
H        6.99378586       1.86391091       0.68399060
H        6.11369038       9.35900974       3.66061211
H        1.85450995       2.64803839       2.94134998
H        4.39648962       5.72961807       0.35133374
H        1.37096798       2.55693841       5.76587677
H        3.73927569       0.49180320       5.99976158
H        6.79160261       9.35184956       4.40187407
H        4.91435623      -0.19215737       0.40940905
H        0.10908259       3.51055813       6.29958916
H        5.93188190       0.41005313       5.88876200
H        9.75792885       4.20925570       1.45102537
H        1.67919278       9.16276932       1.71225047
H        6.34296036       8.85732079       5.51117325
H        7.57642841       4.44963789       3.72226262
H        0.04398346       2.31442022       8.47319126
H        9.19369888       0.07187479       0.35633349
H        9.17253685       7.09994221       6.91085815
H        0.49328730       9.29747200       2.19841361
H        0.22666292       5.82008362       5.94753504
H        3.80892467       2.04329801       8.06712055
H        3.66507792       1.21996200       0.34896228
H        3.58740830       5.26236057       7.09590197
H        6.02166796       5.40081978       7.04586840
H        2.89392662       8.58756924       3.70682788
H        1.96268630       7.68094444       1.81336451
H        9.69090271       1.74461353       4.45857096
H        4.86514425       4.52361059       6.91096640
H        5.22818375       0.86546719       4.28584719
H        3.19901299       3.04148126       8.29733753
H        4.09583950       7.35123396       5.45863390
H        5.18289995       8.63855934       5.92932463
H        5.43977690       3.53928137       4.10033083
H        7.43047667       7.72249079       0.46752700
H        5.02593470       4.52837610       1.68814826
H        0.22047104       2.59434366       2.47879457
H        6.27959681       3.39167452       2.99421430
H        6.18611574       6.30937719       5.72135258
H        6.18882847       2.00982618       8.62363434
H        7.66101122       3.27435756       0.91878742
H        2.78836823       1.82661498       5.16442537
H        2.38708687       2.71327925       3.87867641
H        1.60712492       0.83783817       5.01637220
H        4.12846994       1.95471489       9.14303303
H        0.88596445       8.60823631       4.79116774
H        7.85550213       2.65646005       7.63997221
H        5.02651787       0.57246435       2.44286156
H        6.77197409       5.42324495       2.17605472
H        2.66653705       2.08468866       7.96137047
H        6.65030241       1.08901370       8.88987827
H        5.57685900       9.23479462       4.82104206
H        5.12774324       2.41229033       2.27616811
H        8.88769722       0.22464201       7.28981638
H        2.13590956       3.48229194       8.62737083
H        7.14389372       0.63092214       5.34297371
H        2.19730759       0.93740427       1.43386507
H        4.87238026       3.51411676       3.11268115
H        5.63655090       2.38173652       3.41615129
H        3.21836400       1.56018424       8.90690899
H        7.40286636       2.93528414       8.61647034
H        8.16864967       6.21732283       4.14626741
H        2.67643619       7.37880611       5.61524057
H        9.71593571       9.27964783       8.26390839
H        3.75544000       5.05861330       3.23448944
H        6.14798784       4.41458559       7.09280586
H        1.74506700       6.07604408       2.96535611
H        2.48393178       6.45011091       9.09636688
H        1.86310470       4.80031061       3.89845181
H        9.80560684       7.42300367       1.48424244
H        0.36101407       3.23833346       3.18704987
H        6.33158779       7.35689068       0.06835912
H        5.79504585       2.78017449       7.79963589
H        8.43809223       5.13105154       4.46793604
H        8.37993050       0.57024992       6.23820162
H        7.47779846       1.03579664       0.26791298
H        6.54299974       2.12495542       6.63542080
H        2.28781962       3.82664728       7.31519365
H        2.41134429       2.48365164       9.08779335
H        2.44114995       3.72439265       3.88632321
H        2.62984896       2.95467544       5.11651707
H        7.37338448       0.71126056       4.08644390
H        7.07817507       8.99913979       0.00573630
H        0.47662634       6.28523064       7.48945856
H        8.49365616       1.01642346       3.28627586
H        5.19126987       6.75735283       3.85582590
H        0.30335543       0.76023930       5.03816700
H        5.02669668       7.75685740       0.30684936
H        0.71344924       5.55788517       0.67777628
H        6.53352070       8.14436913       3.40096498
H        8.76171970       2.36315227       2.56067157
H        2.64550161       5.62985563       2.26465702
H        7.99632025       8.46503830       8.05842781
H        3.00340915       3.21135235       2.76309943
H        2.34254885       1.58431053       6.88616943
H        6.63347864       4.85803652       8.22583580
H        3.04257417       0.82012570       5.06869793
H        0.79914927       6.03595209       2.64148235
H        2.96413231       4.97818518       5.88813162
H        2.02561831       3.03257251       6.65600967
H        8.35554409       4.78513145       3.05007386
H        4.58636379       2.09251976       7.27355385
H        7.89293766       4.01061487       8.34272003
H        3.85983133       0.61960858       3.61189914
H        4.60522318       3.14455724       6.06377506
H        7.98135614       2.25146008       9.78589821
H        4.89039421       1.23930001       0.41913435
H        6.95607805       8.26055241       7.40648556
H        3.64684677       3.10706878       1.53427744
H        6.98614168       2.29790545       3.36176920
H        3.80180359       3.98519397       3.44358253
H        1.96329999       9.20595264       0.43559057
H        2.21203542       8.58979321       4.83291960
H        7.33367920       8.77386189       2.94728708
H        5.66399384       7.14749527       2.07918239
H        1.50022471       2.80032015       7.84153318
H        5.10877466       4.28044844       5.88798571
H        7.29788446       1.73131382       4.60700989
H        5.48152208       3.83386421       7.73233175
H        7.31361866       1.58952177       1.68731129
H        5.92164326       4.07209778       1.12551570
H        7.31522465       1.30642056       6.93798018
H        1.79273891       6.23744488       5.25925636
H        3.99626637       0.97682160       8.30752373
H        9.28084850       4.24634981       7.88172293
H        8.75668430       4.75937414       1.85444367
H        6.05219316       1.47006571       9.89890575
H        2.19233465       6.88066816       3.99064016
H        7.06008625       4.28744078       2.16422987
H        3.73959255       2.03924537       4.28225374
H        5.16624308       2.02948284       9.11969280
H        7.89886522       4.76365614       5.24005747
H        4.35918283       2.16444874       5.85810375
H        8.46473122       9.04087830       9.18052483
H        5.98386621       1.04852593       3.34380007
H        1.48092425       1.22061324       8.26228428
H        1.24287641       0.26651540       3.35776591
H        0.71472812       2.05016279       7.66675949
H        0.58643347       0.91482288       1.99664283
H        2.55116606       4.68636036       7.91879940
H        5.87559366       5.83432484       1.52599251
H        4.59298086       1.66700041       1.36552656
H        7.02445459       8.03564835       8.96964359
H        4.67940950       2.48332524       0.67318565
H        3.56637263       0.97375596       1.48653948
H        5.21519423       8.16462421       5.04042006
H        8.62942505       3.75383902      -0.02628124
H        4.28365564       6.77446651       6.93925762
H        6.39909840       5.91418982      -0.09523529
H        0.38178056       2.04503822       3.38878298
H        4.27871656       2.83586287       5.06501055
H        8.43590927       7.36543846       0.96087873
H        1.96055150       1.49786663       3.03949261
H        9.18307304       7.97764826       8.82969856
H        3.28502536       3.58965039       6.20155907
H        2.68243241       0.01393915       3.08208466
H        1.08368826       1.09768474       4.14745808
H        6.32145023       4.49069452       3.15843725
256
Properties=species:S:1:pos:R:3 pbc="F F F"
H        2.40173936       0.87426674       7.28086805
H        3.78020287       9.12764835       2.82727623
H        6.41890097       2.70769143       8.88431835
H        0.57935649       5.75231934       5.09202909
H        1.48771095       4.94656658       5.10742188
H        9.49059486       1.88954949       1.88399339
H        6.95060444       2.16712785       4.59793615
H        7.05514002       3.29096293       6.82758331
H        2.05300975       4.73465204       1.75476837
H        8.66960335       8.10645962       7.56994629
H        7.56537914       0.79451352       3.18393183
H        7.49898195       3.13852572       4.64012861
H        8.36569500       7.72743702       1.35070860
H        6.78463602       0.42354602       2.34125710
H        8.87391281       6.84647226       8.31645298
H        6.82099104       1.04661179       4.13963223
H        3.36224937       2.74807906       1.50403047
H        9.54762268       9.15206528       5.31456518
H        3.13215375       8.43673420       6.27784204
H        4.59274912       0.70385766       8.17190075
H        7.53722906       4.03891659       0.22610055
H        9.26953793       7.78233433       8.57495689
H        7.26182461       2.18540454       1.10956335
H        7.73141479       4.85700560       6.37120056
H        8.57084751       4.62658691       9.30869007
H       10.01035976       2.72586036       8.15504837
H        4.16036940       5.73851824       5.81352663
H        9.24738979       5.46277237       6.05491638
H        9.03890419       8.86410522       2.14868522
H        9.22274876       6.63238764       4.45765638
H        9.69823265       8.04654408       0.06620919
H        3.98198676       3.51731515       6.08842039
H        7.74580765       5.74441242       0.40341151
H        4.94228888       7.98891973       4.42641735
H        5.77006769       3.07522702       7.63442278
H        3.03553224       3.33246660       4.00158024
H        0.96111643       6.56027412       1.71967638
H        7.48548269      -0.13521789       8.82621193
H       -0.03840722       6.03684044       2.29435420
H        5.35503483       7.62551069       7.25795650
H        0.17578007       3.55965424       4.68133640
H        2.73205638       1.81434703       4.51471806
H        2.97115970       4.91652632       3.03569269
H        3.17016339       2.57323074       3.29146004
H        8.94895363       0.74911082       7.39609766
H        0.68754059       0.46855870       5.35026884
H        6.30483675       7.59804678       7.76530266
H        5.97601652       0.84429944       3.31646180
H        6.19916534       4.27695227       5.74933243
H        2.44340587       6.27440310       1.34983683
H        7.05118895       6.34605598       2.76167512
H        5.70291567       9.79421902       0.49681240
H        1.79530740       5.68759346       3.98949265
H        5.27205563       0.68753874       5.17162275
H        5.15767002       6.84509230       6.06983614
H        2.79033232       4.41200209       1.16095972
H        8.52832413       6.93936634       5.41044521
H        4.36834621       5.15578604       0.33347034
H        4.26710606       8.88811684       3.81294584
H        8.82053185       6.06178999       0.62424046
H        4.72412109       1.58938146       5.59927654
H        8.07234764       8.01987648       2.58031487
H        9.08412361       5.65656185       3.45565557
H        4.20910645       8.45562363       9.06651402
H        6.26309967       4.02508593       7.35267115
H        4.36672449       5.22211552       1.82946384
H        4.44095182       6.69898510       4.40448809
H        5.01309872       5.78993607       4.84397125
H        8.84063625       0.69880247       2.16718411
H        1.05793548       3.22207761       4.24511528
H        5.34717751       9.16671181       4.86296511
H        9.37577343       3.73271465       7.72776127
H        1.44468379       5.08716488       6.83113432
H        6.34953308       1.03757930       1.68066084
H        1.97310603       8.07851696       6.81125069
H        4.04339695       2.47204614       4.32477808
H        6.45319462       2.36871600       6.41072512
H        8.24208450       8.68922710       3.66152668
H        0.05031015       8.59992504       7.26166868
H        6.07731485       8.22357082       9.67364979
H        2.02174401       3.83706999       0.56947899
H        0.42089683       7.28461790       5.03243399
H        7.65585756       2.91145730       0.51518130
H        8.25484085       1.36642158       2.76537323
H        9.25948811       0.42357153       6.14850664
H        6.86852837       8.79714584       3.97898507
H        4.89739180       4.12784338       5.53396702
H        8.13754272       1.54692066       0.35846052
H        5.84254313       6.08023691       4.08028269
H        5.98350143       4.87299633       3.73289061
H        1.89860022       9.34247112       1.61510134
H        0.77132589       5.39935589       0.51655221
H        1.20583498       6.55834770       6.99181890
H        7.50412798       4.11345482       7.35487938
H        7.87095022       7.39214039       8.44426727
H        2.29895067       2.20914936       0.91463441
H        7.89586449       3.05924273       2.34904790
H       -0.22123390       2.61479783       3.82235909
H        1.55592465       7.02386045       8.61320496
H        5.53702402       7.25168610       3.88102412
H        4.99328136       1.52418280       1.84177315
H        5.61492872       0.10421982       2.36787653
H        2.17940044       0.96557635       0.81183344
H        5.27444839       4.28713942       8.87741280
H        0.96893865       2.75307441       6.92896748
H        4.14634562       0.24003460       4.61686563
H        7.23794746       0.04996745       4.94447947
H        4.21493769       8.84013081       7.03740406
H        0.57559681       9.05249596       6.39337635
H        7.07153463       0.82834154       6.16891050
H        2.00350666       2.79438663       5.00877714
H       -0.00897582       7.15331364       1.59581840
H        5.98251295       0.22224975       5.90408850
H        8.55266953       3.99289417       5.71337461
H        9.19058895       1.65147674       6.18681669
H        8.01072502       0.42504013       0.79663688
H        1.74649405       3.80932093       4.84263039
H        0.12895094       1.08918071      -0.11224034
H        0.21430339       7.25248575       3.16658521
H        5.82704592       2.31048322       2.44130993
H        1.70955014       8.96053886       0.47879279
H        2.71159363       5.46281242       8.35718060
H        8.87015533       3.75164604       0.71205914
H        2.92477012       0.02043697       5.15203714
H        1.66566181       6.21178961       0.63946718
H        0.66283160       0.53607446       6.98043871
H        5.53323317       2.33628178       5.43054628
H        6.10410261       1.37205243       5.23612022
H        3.18697000       5.07904911       9.24425888
H        0.77144504       7.11165190       7.86602354
H        4.40528536       0.03446466       9.64144707
H        4.31818819       1.84909236       2.71133161
H        0.67453724       8.38945675       8.54134274
H        3.76978159       6.80000877       0.96339840
H        7.76818943       3.08702421       3.40929794
H        7.25129557       4.19312286       3.82354569
H        8.05238724       7.34123945       6.39427280
H        9.11477566       9.25904560       8.08447742
H        7.13877726       4.68708897       8.15129662
H        1.19214261       1.97815955       2.74133682
H        3.34221482       0.98009437       2.91617775
H        4.43597984       2.69570017       5.39565706
H        3.82324505       1.26683152       1.59082770
H        0.47161970       1.69692957       5.55589867
H        8.15808201       0.26576898       6.18603563
H        2.79929113       8.60136318       1.61208165
H        6.25954008       3.43516207       0.51469421
H        3.48169422       1.62312686       7.25929976
H        5.73516321       2.29502630       1.33050132
H        5.61635923      -0.11248478       3.67848802
H        6.69782352       2.05809402       3.62660646
H        6.41592026       7.68047953       4.45462084
H        1.55418432       1.64687800       9.11204147
H        7.46953297       7.82548094       4.55645514
H        1.84648228       8.29217720       3.03662109
H        1.52479124       2.25665975       1.74096787
H        5.48777437       2.41215253       4.35494757
H        4.41729116       3.74240851       7.71861172
H        7.39941406       1.84059036       7.21374512
H        8.91508770       7.62998009       3.87222672
H        0.21455280       8.08174992       6.36157179
H        2.28524423       8.51847553       7.86209297
H        4.93226385       7.39829779       1.43236160
H        7.25204754       3.41470098       8.63315773
H        1.52468419       5.87369967       2.43167949
H        3.03480387       6.21979427       7.54925156
H        2.87266135       5.40688181       6.53791428
H        0.85010678       3.43193340       2.81256771
H        2.23420382       1.41104722       2.91633272
H        6.81620836       7.45596409       1.57690680
H        7.15151930       2.14866114       8.27921867
H        9.45149422       4.70233727       3.58397102
H        9.10828018       0.97964448       3.92816329
H        8.82306671       1.32864928       1.19199622
H        8.25883484       9.60158157       4.75243855
H        2.26715946       6.30731249       6.44580793
H        6.28338909       1.82386124       9.53054714
H        3.50206447       3.63860083       2.09173584
H        2.12944841       5.43548489       5.78192663
H        9.29615402       2.62858462       5.06688833
H        6.85391235       1.26411581       0.67674547
H        2.62197518       6.84580469       5.57284975
H        7.77640390       2.10622215       3.27864408
H        7.67608356       8.82279396       5.56674385
H        1.20349264       3.84763217       6.77205133
H        3.14769912       7.85300398       7.38652563
H        1.21173167       4.16430235       3.61716557
H        5.34804010       8.75495243       1.70748949
H        5.93792772       4.30081129       1.75174320
H        3.86224222       3.92001009       0.17286740
H        7.99122477       0.15184720       7.44668531
H        2.11042643       4.26394415       2.70064974
H        4.07765865       4.84393883       8.09211159
H        8.44523430       4.69030046       7.78406096
H        5.70543337       1.36097157       4.13439131
H        2.18200135       3.13439488       3.13358808
H        3.13253117       7.47653866       4.89838362
H        2.82549214       5.59746552       4.96034050
H        7.93576241       3.69806981       1.59048522
H        4.26043653       0.45820194       7.01602173
H        7.88104057       0.95481491       8.28475475
H        2.73155689      -0.06962737       2.68540978
H        4.58932257       4.00721312       6.61917400
H        8.58736038       0.60449046       9.09053230
H        3.53935790       1.80933833       0.79047239
H        5.57877016       8.06336975       5.95505953
H        5.28147125       3.52312684       3.44653034
H        5.95520115       3.54067540       4.55135632
H        4.20675516       8.02975464       2.07411957
H        1.08923185       8.80470657       7.45664501
H        1.23990476       7.47850370       2.59204984
H        6.91311550       3.01030946       5.59643316
H        1.78108668       5.84529495       9.17520809
H        3.43965745       2.73237038       0.37863642
H        7.20874166       4.16392517       5.05317068
H        8.12091255       2.27853870       5.23180389
H        4.71270418       3.10255718       8.80436325
H        7.04261780       2.02871680       2.27566552
H        5.05295658       8.29026318       0.59385604
H        7.53326416       2.15981722       6.17862082
H        9.03015041       4.96566296       6.85405016
H        2.48144078       1.57026827       8.63758659
H        8.11663437       5.93654871       6.50338650
H        6.83901691       5.04410505       9.27081013
H        2.40777087       0.69147593       2.01262283
H        1.81343794       0.43933508       6.35833788
H        5.12704802       5.29152346       0.89285237
H        3.83368158       1.25545335       4.77837372
H        6.47319269       3.03365040       2.55800128
H        3.52379155       6.21776295       9.44479942
H        4.21834946       2.28209114       7.75597715
H        9.87878704       5.96554041       7.80152988
H        5.25283432       8.47947693       2.98238826
H        3.77172422       1.40219486       8.41505623
H        8.48780823       6.68694258       1.89973974
H        8.58786488       1.77641225       7.05182791
H        8.65290260       2.47098541       1.38822567
H        6.87976456       3.26646519       1.71613109
H        5.99145555       5.88661909       9.03469944
H        4.84976101       0.83806437       3.09897757
H        7.04692745       8.36532116       0.60860574
H        3.04944277       5.56597281       1.96653783
H        2.02200675       7.76244497       9.30437756
H        6.89695644       8.20804691       5.94112587
H        3.34194303       4.00404072       8.79607582
H        2.58571458       7.60433340       8.42043400
H        8.74100685       7.64094114       0.02080439
H        1.49375319       0.26244333       3.13998151
H        5.27149153       5.17340279       6.27301073
H        9.25937653       5.26328087       1.21277487
H        2.99136329       0.44962388       4.12310648
H        8.63500118       8.97428417       6.94115686
H        2.09312034       3.96024585       8.53520107
H        1.75292242       8.01966286       4.07101297
H        7.18678427       9.36955452       1.21974385
H        6.92768908       3.95306015       2.77476907
256
Properties=species:S:1:pos:R:3 pbc="F F F"
H        0.18739164       8.69090843       8.16340637
H        1.60974920       0.65890771       1.05060124
H        4.98876381       2.61436105       9.41106033
H        0.42450240       3.30161881       3.37910151
H        2.47712779       6.47923613       4.47944021
H        0.77075505       1.61945748       0.74474782
H        4.41310596       1.00308990       6.74962425
H        8.31909943       2.54073668       6.81792641
H        0.58886647       6.58069992       9.11078930
H        2.48987103       7.97573233       7.95411921
H        9.05593395       1.66174507       5.86388350
H        4.95386648       2.19049311       6.80164051
H        9.43929195       6.62450266       1.01857197
H        8.36605740       8.45320702       3.32355142
H        8.75134182       6.36629629       6.43110847
H        6.20133162       8.53743458       4.77204418
H        3.28907132       0.49659428      -0.04615768
H        2.47987986       0.51321930       6.59045792
H        3.75725794       8.06173420       6.16715097
H        4.85051441       7.65877914       6.11199570
H        7.75120878       1.26859975       6.41028500
H        1.85899305       8.23259449       9.10886669
H        6.37926483       2.72842956       8.88910866
H        5.99778605       3.33191061       6.87258959
H        7.47724104       1.45662344       9.44906235
H        2.83695674       2.27629614       8.29652977
H        3.25650287       3.96810722       6.51852608
H        3.49132276       4.66595745       3.98722529
H        0.68657261       8.40002728       1.26731372
H        1.20587862       7.53672218       1.96525693
H        2.47529840       6.03294754       6.13088560
H        2.71665788       4.47280550       5.35700321
H        0.65832180       6.03554821       1.90895820
H        1.02030647       4.15063620       4.33637238
H        6.25348663       0.97538662       8.47059822
H        2.02772808       3.37810898       5.10765505
H        0.36930078       6.86283541       2.99253106
H        6.04780102       8.84938622       1.71855664
H        9.50171566       4.65627432       1.65812945
H        7.65420675       9.19694614       7.68538237
H        8.79515266       4.05659342       2.47232819
H        1.76444244       0.47665054       5.08865738
H        3.16876483       3.42436743       4.74916697
H        5.18840313       1.28951037       3.04759979
H        1.18569553       2.68284631       5.47612953
H        3.69971156       7.87279224       7.45401287
H        6.71727133       7.47062826       8.93385315
H        8.79144573       7.81479216       1.05143869
H        8.86305809       5.30761385       5.77616262
H        2.74941564       2.73265529       2.85267019
H        2.64196110       5.31748819       2.22839975
H        8.24966145       1.62447274       1.15326762
H        8.35351372       5.61563873       3.26639080
H        5.05191088       7.82941532       3.08393502
H        4.40455055       4.65419483       4.95898914
H        2.75291848       4.58069944       3.17449760
H        1.18093526       5.66505814       3.77412605
H        2.77342749       4.79931784       0.13385364
H        1.47419000       7.00424385       3.16040397
H        7.48902464       6.44707298       8.18769932
H        5.16932678       0.07291897       7.47463226
H        8.94979095       9.04213905       4.62548018
H        8.95483017       6.44297791       3.27213192
H        3.81791949       8.63445663       1.84110701
H        5.11820412       1.69987655       8.52503967
H        4.09950542       3.87584734       1.74287152
H        3.73368216       7.61305904       5.09343338
H        8.03615284       6.88768911       3.71855903
H        0.19727831       0.78460705       8.24594212
H        1.08638608       3.00011373       7.66199827
H        5.24380493       7.75875854       4.50301361
H        0.98719865       5.78508806       7.09241199
H        1.84781158       6.37274170       5.29284716
H        5.47154427       1.22785473       4.73796082
H        5.57252598       8.92693138       6.59170628
H        4.94472885       3.64421463       3.14230299
H        6.25590420       3.02947140       7.91363096
H        6.51664782       8.04423523       0.25085837
H        0.30356592       7.77385139       5.93671608
H        6.24492693       8.75220680       8.66390324
H        1.82733214       3.61682534       0.64230722
H        9.44851589       7.40188932       3.70432949
H        7.11919880       3.19613171       0.68621552
H       -0.32197294       2.46504712       2.22084236
H        8.36283016       0.47197452       7.63327742
H        5.90133667       8.25839138       3.65963101
H        5.82267904       4.38305283       4.53650522
H        6.55890417       0.38955647       9.29432583
H        6.53027534       5.81895828       7.70095682
H        6.01890182       4.39763784       7.18888807
H        2.50324678       2.92178988      -0.06892423
H        6.52371264       4.59140110       3.56167436
H        3.01252913       7.31771612       8.95535755
H       -0.52470380       1.20010769       7.38435173
H        7.04488325       6.89234304       6.72069502
H        0.75843263       1.77463925       1.94654763
H        0.59457040       3.42638183       2.13611388
H        2.10894489       3.72604656       3.70924926
H        1.01943707       7.08894634       7.15575123
H        6.08695173       7.02656174       2.87941599
H        5.27076674       2.39364552       2.70882940
H        7.76140738      -0.31820488       2.01390767
H        4.46874046       0.26474866       0.52538073
H        2.11411071       3.51699829       7.21229696
H        1.01735532       5.19795561       4.76352406
H        4.64397573       0.62029010       4.86389399
H        5.10430765       5.49120903       4.95203972
H        0.69787985       5.00234890       8.32221985
H        0.47175112       6.50198603       4.17352629
H        6.55530977       1.71684074       7.78354406
H        1.47750521       2.04696846       6.58851147
H        0.19040957       7.44181490       1.74539340
H        5.59267759      -0.03771158       3.70113301
H        8.01943874       7.32849884       5.69834375
H        1.17040122       1.43177700       5.38695431
H        8.85208321       9.32377434       8.98342419
H        4.01349354       3.62221003       3.94230103
H        9.46160698       3.57717299       8.37881184
H        7.45782137       7.37867212       2.78305578
H        4.50243187       1.27733088       5.68860960
H        0.58335310      -0.04024319       7.47525644
H        2.05403614       5.26458836       6.50394630
H        1.01179564       4.38715982       3.15490890
H        3.56569242       1.40540016       4.97418308
H        1.60445869       5.47005129       1.68121934
H        1.43531024       0.52123308       8.76774216
H        7.82517099       8.85045528       8.61800766
H        6.37202024       9.23988914       5.88075590
H        1.87877452       5.70305109       0.68331587
H        9.33517170       5.57634735       9.02606583
H        2.11909246       0.33073360       0.01865615
H        3.36587930       2.67371869       5.43712044
H        1.49319553       9.16500378       7.88900805
H        3.85052752       7.01667213       1.25708854
H        7.08122015       5.42071199       1.55843067
H        7.72392845       3.41093326       1.75750077
H        7.08508730       8.01622772       5.70958900
H        0.29476452       7.70269442       8.89187813
H        0.54289621       5.29687691       6.14789867
H        1.68691480       2.21687722       1.17012799
H        3.09616661       0.57086951       3.05355644
H        5.39328575       2.30613756       5.41087723
H        6.53456020       0.59839374       0.90850842
H        1.56293106       2.27654743       4.59844255
H        9.00000858       9.08398628       7.25723648
H        2.69358277       7.99214983       3.38375521
H        3.93310499       2.37343788       9.43046093
H        3.70544624       0.71422005       8.07460308
H        3.12482786       1.66664648       2.72684693
H        7.11837578       8.71911430       4.14001369
H        6.28063011       1.38734961       5.59118080
H        7.08924723       7.66071653       3.80898285
H        8.27195644       9.27190971       0.39538276
H        9.39445972       0.80881995       6.52897835
H        9.33241177       8.49402142       1.90053809
H        8.92232323       4.69558287       9.45718575
H        4.47742796       2.31503558       4.70833302
H        4.52892256       4.94329929       7.92406464
H        9.05173588       3.05702877       7.32881784
H        0.08565331       8.15709019       2.89924765
H        8.94720745       8.85075665       5.61600304
H        6.18359661       0.37698328       7.57412434
H        6.63278103       0.24239978       2.18848681
H        7.46986485       3.25355935       5.46502781
H        2.08968282       6.99674654       1.35069776
H        3.40392399       8.19940186       9.02938938
H        4.12929010       5.81443167       5.12716198
H        5.72611141       3.17234254       4.66167784
H        4.63035250       0.41415739       3.26593924
H        9.00412273       4.54162455       3.53962779
H        5.39545870       0.05438613       9.25235748
H        4.54491043       6.68683720       4.35556602
H        1.57811880       2.66264892       2.06742358
H        9.02007198       2.78466940       1.02359092
H        7.54574728       2.18609238       5.94254494
H        3.07916331       7.10711479       3.79488993
H        4.63715458       8.28836250       8.77205181
H        4.60221481       3.60443997       5.20974445
H        3.11541653       4.34518957       1.42461908
H        2.39324903       2.73465204       4.35449934
H        7.87862921       0.33409232       9.05713940
H        0.22182675       5.24057817       4.05498266
H        6.81785917       0.37917611       4.42916107
H        6.22779036       5.51531363       4.67496729
H        0.59824133       4.27176285       0.79282874
H        2.37512493       0.76732856       1.62730277
H        1.58782530       2.23002505       3.35223794
H        6.13914156       8.71472359       2.82078815
H        6.51435757       6.15557718       8.88143635
H        5.17451000       4.29945040       0.11154364
H        7.23876476      -0.37237340       0.85750234
H        3.90364790       2.42568231       2.89114332
H        7.21170664       6.70911837       1.13072836
H        2.09256172       6.32280493       8.04660034
H        3.80764699       0.45780712       5.56498909
H        1.80526710       4.46088934       2.36591387
H        2.86198831       8.63083076       0.33855054
H        2.80121851       6.90637112       5.56213808
H        7.46605444       2.27609658       2.19243217
H        3.56208730       0.28148529       6.68705511
H        7.47667646       1.24122238       8.28585720
H        3.66839337       9.44763565       3.81300640
H        4.48798943       5.30761480       3.96884799
H        0.10828261       2.18728542       8.58744144
H        4.90223217       1.40009654       0.19924681
H        6.42306805       6.25769663       5.90779495
H        3.95828962       4.36653805       2.75468874
H        6.04495430       6.45232344       3.79214835
H        3.20853615       9.02074623       5.24527740
H        2.95650887       8.13102531       4.47146130
H        8.76436615       0.52277094       0.94691890
H        4.65178490       4.00169563       7.61032343
H        1.18646038       6.66723442       1.08416748
H        2.50671029       4.66150522       8.19766712
H        7.78376627       5.23833799       6.15314674
H        8.14473915       3.62147641       4.83287907
H        5.45905256       5.86905289       8.96962452
H        8.76121044       4.14092445       0.78923470
H        3.88749576       1.03933239       1.03114414
H        7.50754786       0.31474233       6.69537926
H        8.91679478       4.19886017       7.40897131
H        6.25697708       8.84483910       7.66295099
H        0.19664994       4.53159046       5.14011908
H        7.80981445       7.90346193       1.89163876
H        9.31507301       2.76717734       4.43032408
H        3.73330474       7.11633730       6.59895849
H        5.90830183       5.93318033       2.58443880
H        2.48196316       0.21463417       7.86403418
H        6.74129677       5.10915422       5.86907768
H        1.51340127       7.22473145       8.79961300
H        2.49510503       2.86164021       6.23402643
H        7.65597916       2.07413363       7.36592340
H        3.74893498       8.07057381       3.79093671
H        2.71697092       8.89082718       8.64887524
H        8.77515602       7.46227217       2.96238327
H        1.12363768       3.08888602       4.27358723
H        0.59025276       2.51914191       1.24019504
H        5.42364025       5.14948034       3.37196016
H        1.50135994       4.03753948       9.11019802
H        6.27277279       0.98153096       3.50888467
H        8.35056782       9.38369656       6.26890564
H        5.32607603       5.64772797       1.79566383
H        0.27729160       9.44297886       1.96640956
H        5.46098661       6.66410446       4.85340261
H        3.18708873       6.73474693       0.55848014
H        1.36249316       8.38303185       6.94081068
H        8.55630112       8.16998100       7.54610157
H        2.77289581       1.91817844       1.27303672
H        5.64191866       5.58322906       6.65866232
H        8.58632851       6.26240921       1.85190487
H        2.44484687       1.65484214       5.30079365
H        7.60149336       1.10637581       5.10793924
H        4.07966471       2.55774522       7.87741041
H        1.25743473       9.72051716       3.97749710
H        8.31688023       8.72955894       1.18579304
H        8.30093098       3.08658051       0.39755291
256
Properties=species:S:1:pos:R:3 pbc="F F F"
H        8.68613434       8.43467426       8.71875381
H        1.13732445       1.33730781       1.21373725
H        3.72446942       3.64808083       8.11577129
H        0.50586301       6.41476536       3.22507739
H        0.29595089       5.13319254       2.96388435
H        1.63236928       1.54790795       2.24566174
H        4.16537428       1.05868506       6.69292259
H        8.66940880       1.30407619       4.41208649
H        8.04032707       5.47544193       8.38960361
H        3.76158094       5.79837370       6.67886877
H        9.45116425       1.62516177       2.33971763
H        5.77055407       0.84110647       9.44365406
H        8.01753044       6.72449589       0.08625042
H        0.74852782       8.59025860       6.18314362
H        7.92475271       8.45530224       6.45639324
H        5.89284277       9.11543369       4.16153193
H        4.77826548       6.40951777       6.04282999
H        0.00281736       0.20838916       7.07249260
H        0.85031879       6.95482826       4.55254316
H        3.82808590       5.88397408       8.71877193
H        6.83985567       0.77454031       3.61972046
H        8.51546383       9.12635517       2.44597197
H        5.83165264       1.30230093       2.33932781
H        3.68532801       2.56116247       7.06338835
H        8.54223919       8.20144272       1.57059562
H        2.62724686       2.13880396       9.06090736
H        2.84144282       3.15567446       5.72966814
H        4.37897491       5.50353289       4.66428471
H        4.21297503       9.15604687       0.76689571
H        0.19023375       0.53513509       2.85903668
H        3.37248874       6.52630091       2.84310770
H        1.91019368       4.56017876       5.75092220
H        8.46250534       5.57936478       2.98904753
H        3.75233984       6.73267126       3.92156577
H        7.11820078       0.16433395       0.74371260
H        4.96870422       3.32511187       5.42822695
H        2.01480341       9.40245056       1.31104195
H        7.67227793       0.69161969       4.13572931
H        8.19249630       6.55146313       8.31361866
H        7.53057337       6.81713057       6.79079819
H        0.42548403       2.60231900       3.99585867
H        9.34635639       7.27171469       3.96099591
H        5.10413742       4.57392311       8.21803665
H        4.49603844       0.06303108       4.15624285
H        9.21803856       2.98179436       5.45952415
H        4.66005087       2.73143077       4.05442238
H        7.19958067       5.67455721       9.70276737
H        8.94084740       6.32070637       0.68092179
H        9.62873173       6.28321981       4.45677567
H        2.66359997       8.51138306       5.52989674
H        2.11147404       4.92349863       1.05768740
H        0.59556091       3.58486509       2.70696735
H        7.60209560       5.63155174       2.23864913
H        6.08672953       9.06503105       7.70106792
H        4.36617279       7.37109327       6.29353333
H        2.47753811       6.04261351       1.06445527
H        2.52623200       3.86352801       3.00663042
H        9.65297031       4.02551889       9.49792480
H        0.38688180       8.00206661       2.72185183
H        0.62832552       6.52642441       5.54102516
H        6.36345625       5.68318653       7.10637951
H        7.60410500       1.00903046       1.98443651
H        9.01680565       6.31645823       2.34549379
H        2.70971870       9.17791939       3.11918211
H        7.20872784       1.03024232       7.98534346
H        3.81903553       4.98772240       1.00814176
H        3.76673317       6.83305979       5.10644960
H        7.37956285       7.59155798       2.53308606
H        9.42870808       7.35154867       7.20628405
H       -0.08687021       3.05075765       8.07464314
H        1.82071638       7.65192080       3.76390910
H        1.32902646       7.79302025       5.55031157
H        0.15224086       7.76423168       5.22006845
H        8.44365311       0.44609728       6.37300634
H        7.24886227       0.25794038       8.67818069
H        3.23792553       4.89576578       2.36371207
H        6.29437351      -0.22036016      -0.10688707
H        3.16716719       0.26773617       7.15810394
H        6.20327616       7.82711935       5.26215935
H        7.67219639       8.25571442       7.42075157
H        0.96584243       3.12488961       9.43580246
H        8.61462402       6.12814617       5.56424856
H        5.23185301       4.27213192       9.22349834
H        9.30292892       2.53722382       0.41329250
H        8.50891209       1.06948483       7.19480228
H        7.54813910       8.36215210       3.88557935
H        6.52134991       1.32163382       4.57304859
H        8.81911469       0.03565370       8.53933430
H        6.98659468       6.08788872       1.34418857
H        2.90973210       5.38245630       9.41692162
H        2.73695779       2.81816435       7.07663393
H        4.82550907       2.05183172       1.82340038
H        1.78193080       6.03747988       5.69267464
H        9.30740070       4.34526968       7.56033182
H        6.69841909       8.21020889       6.80510139
H        2.33509493       0.97887433       1.88218367
H        2.32635880       1.81944644       3.27173901
H        3.34141612       4.72026682       3.61567116
H        1.11664176       5.03969383       6.93457460
H        4.88887405       8.24837017       4.38805056
H        2.86912751       9.54377365       0.00823702
H        9.33193588       9.00186062       3.14777184
H        4.97093630       2.28093076       9.41882133
H        1.87695789       4.27787447       6.81821060
H        1.97665226       4.74791193       3.21187949
H        5.98495865       0.69615388       6.17551947
H        5.59262419       6.38554811       7.00717688
H        1.70711291       2.68520403       8.69720745
H        3.31143212       6.42554951       1.80366826
H        4.74123144       3.68757963       6.54280519
H        9.53013325       5.54150057       5.25828505
H        1.47162509       5.87742329       1.46025312
H        6.18048811      -0.04221505       2.95275021
H        8.94430923       6.44036913       7.39147043
H        2.17742348       0.79832047       8.51290798
H        1.75180149      -0.15500221       7.92007542
H        1.90291858       2.74235225       4.10798788
H        8.61528873       1.25716698       5.49416924
H        8.14861488       0.46834552       3.14315200
H        4.36271238       1.20774412       8.32556057
H        2.33834219       0.31550363       5.04777002
H        3.06815743       3.08846545       4.21246147
H        7.03377914       5.09463310       4.67310333
H        2.40905547       1.01949334       6.59057093
H        0.86744314       4.89579725       1.94759154
H        8.45562172       9.27752876       0.41736507
H        7.40238428       7.87772894       1.56479454
H        9.62805367       9.15991592       5.66544342
H        4.29257774       8.48986053       8.35798550
H        1.16167295       4.65083838       9.13851738
H        1.07211804       0.57246530       9.69148064
H        1.47916472       3.18333411       7.46046638
H        0.71895158       8.87248707       9.03557396
H        4.01412058       8.79953289       2.31924057
H        4.29556561       9.52125931       9.10977173
H        4.86845541       3.74962878       1.71648550
H        7.18002987       6.90496969       8.96576309
H        1.01375604       7.90771484       9.35340405
H        1.35313344       5.73785162       3.71865988
H        0.17609905       1.67767072       9.49152660
H        4.43228865       1.79750502       3.53382683
H        5.23779011       1.88136888       5.55354261
H        5.96436262       6.59056854       1.46260500
H        1.54006088       0.32090282       6.59952688
H        9.04539585       8.72348976       6.99788094
H        1.01605117       8.93641567       3.00466847
H        2.34363651       0.74683046       0.75118041
H        3.08724165       1.21037769       8.62809658
H        3.77527571       0.67331457       1.97234464
H        8.38555145       4.39524078       6.20431328
H        3.40083241       1.77948916       6.17907810
H        8.57266521       8.06033707       4.56853151
H        1.31544340       1.44633913       3.44942236
H        9.38802433       2.57133818       6.78200483
H        2.21571326       8.73031616       0.25380835
H        7.77465296       4.98964787       6.93742085
H        3.23798347       0.33746633       5.50739241
H        0.81537545       3.66432977       6.88627815
H        5.63706970       6.42558432       3.44327927
H        9.12174416       9.21619129       4.13666201
H        0.90477550       4.93476057       5.31019211
H        8.03563118       1.40409529       8.55793095
H        8.57070637       1.56393600       3.22670436
H        9.47955990       1.22491002       6.61744213
H        3.23135900       7.95187998       0.17443752
H        5.56214619       0.68052942       7.64714336
H        5.65898228       6.83778000       5.60203409
H        7.36153460       3.30906987       4.99932623
H        4.96895981       1.81414282       4.59444284
H        6.36823320       3.39050841       3.08772087
H        7.46310091       8.97766972       2.85284543
H        3.57087588       7.76363659       4.28313112
H        4.28872013       3.11022210       0.18672760
H        1.61216867       4.56781769       8.29586983
H        7.59072971       1.89839435       4.07323170
H        3.09264112       9.37625694       1.03972685
H        4.00521946       5.04068708       9.40856361
H        4.07925081       1.44421780       9.30726147
H        2.52457213       3.12063622       8.12964153
H        2.00343156       2.97823405       6.39194059
H        1.20578098       9.15456676       0.81277955
H        7.86336327       5.12442589       5.46345711
H        6.47444105       8.10573864       4.16555834
H        5.02292156       6.45377636       4.69672346
H        4.64193773       3.43017840       8.61538792
H        2.93605590       1.84707820       1.41504514
H        0.77371055       0.50439125       4.19969940
H        9.89809418       1.55969262       3.88089752
H        3.99118590       3.82914734       5.67370415
H        7.36131716       2.47721624       9.06045818
H        7.93713236       7.59131908       8.72752857
H        6.82025051       1.62790501       0.00506827
H        8.96818924       7.88278198       0.29531789
H        0.29464737       7.46297884       8.47843552
H        2.51213050       8.81118584       6.83432436
H        2.73831105       4.46330309       8.45291710
H        4.35576725       0.65763247       0.49267390
H        3.54697561       8.22749329       1.36736369
H        7.89001894       2.20872045       0.37321874
H        4.61172867       0.32236463       7.92934418
H        6.42293978       0.77256805       1.40988541
H        3.01665878       7.34111929       6.28505898
H        4.87558413       7.61439466       5.38033628
H        8.57484722       3.01304007       9.20559978
H        4.19996738       2.01887059       0.76990855
H        5.77191925       7.19265795       4.39263153
H        1.72613060       4.12270689       1.70207858
H        8.62973881       7.70551157       3.18510318
H        5.28630877       6.48717785       2.39490223
H        2.08979630       0.60241199       3.51502824
H        8.05598259       1.25537646       1.10771906
H        6.29872942       4.23400831       7.48438883
H        1.70101154       5.46578598       8.79266167
H        2.90793681       6.79532433       9.53491020
H        8.95501041       5.42299604       4.31758738
H        0.28883508       4.74257946       1.02956939
H        6.46118641       9.37200069       6.56763887
H        1.01153004       5.56014109       8.05239964
H        5.12093687       9.22231960       1.23141611
H        8.45260334       0.17343934       5.04815722
H        9.50401592       5.71782351       8.67155075
H        5.65661001       2.10887456       0.87221217
H        1.46146560       3.63061261       5.40909147
H        2.00836325       8.90315723       2.13094425
H        0.53640056       5.08534956       4.16394615
H        1.78400075       3.85406518       4.05237913
H        9.41715622       4.48701811       2.15145254
H        3.40103483       0.25411224       8.63313484
H        6.20915174       7.22885227       7.67113876
H        5.02416658       8.12149239       2.16908431
H        0.54249454       2.29271603       8.42311001
H        0.12670200       0.99055225       7.76817513
H        2.50987935       6.57827044       4.55765104
H        1.32113206       6.58616734       9.10155582
H        0.25470990       7.37389135       1.79496324
H        2.56853747       2.35175896       2.25248098
H        0.96045911       2.29754329       0.83574742
H        3.50553632       5.77179766       5.25539494
H        1.52594233       1.69882476       9.22383690
H        3.74671531       7.62807178       7.31166315
H        0.83019513       0.86424255       5.60351562
H        8.15120602       6.87555027       1.04106283
H        6.18577623       9.19571781       1.33921468
H        7.22249794       9.23100471       7.45783186
H        5.45963621       3.91829228       3.42313671
H        0.94288546       6.30757761       6.66259003
H        0.11217275       9.21037674       8.03882885
H        1.77002025       3.73785305      -0.17560568
H        2.52186942       5.55383968       7.66874647
H        0.44999883       6.04425240       1.20975494
H        3.46193171       1.75666082       7.56641340
H        9.49967766       2.64768863       2.69994903
H        6.74386692       7.81624174       9.42451382
H        2.24206352       2.50703287       0.82110035
H        0.24413845       8.61890411       1.75706625
H        8.13484573       4.58196878       2.02831626
256
Properties=species:S:1:pos:R:3 pbc="F F F"
H        9.53729343       7.92498064       5.79354763
H        2.34682941       1.34044266       0.29887798
H        5.05767965       1.96641433       5.36381388
H        0.37597302       3.91279888       3.18492627
H        0.63299429       6.79188728       2.41148901
H        0.88477314       0.52824408       2.05851984
H        2.70773196       3.33597040       8.25732613
H        0.31697431       1.51819253       3.58406472
H        8.74034023       3.74568677       0.76785314
H        1.37541711       7.02550697       9.02088070
H        9.25084591       3.47897530       4.24879169
H        8.28459072       8.52633190       0.62374151
H        7.91857862       7.25352669       9.27026463
H        2.14750266       8.80777359       5.52702093
H        6.35893250       2.71082497       5.25522423
H        7.59581375       7.86147642       5.32385635
H        6.18622017       6.02543497       4.60574389
H        7.90327120       7.16563606       6.71105957
H        2.20156479       7.20238924       2.53404307
H        2.28810811       6.68812180       1.18751550
H        8.05634594       1.89267361       3.24191880
H        9.14269638       1.00164032       2.96761060
H        5.36366940       4.70183182       2.52239847
H        4.73892927       3.27771616       6.18143511
H        6.22722101       8.39466667       2.60536861
H        5.19669867       2.34854031       0.01505876
H        3.33403635       0.81181759       4.89592552
H        5.24484777       5.73127079       6.41858244
H        7.36515522       9.36795139       2.37025785
H        0.44595325       8.62648678       5.25889587
H       -0.09324655       7.33227301       1.48834050
H        2.69984078       3.67357588       5.56726933
H        7.01337767       3.41591263       1.65446579
H        3.79220510       6.80281544       3.35316777
H        8.66573620       8.56925011       5.86036777
H        5.30429697       1.93144643       2.25555634
H        4.71740389       8.49788570       0.40849310
H        7.66687202       1.90373337       5.26994753
H        7.22014570       6.28762436       7.01949501
H        6.81246519       4.39008665       5.84987879
H        9.32346439       3.29015899       5.78267336
H        9.20806694       8.45541573       2.52165365
H        4.57486534       7.64224768       5.75944424
H        6.26352310      -0.09905146       1.37044835
H        0.55906177       0.64883667       5.75643110
H        4.31005955       2.37078547       0.96536845
H        8.28194427       6.27303362       0.35869747
H        9.15820694       7.82003069       0.27136764
H        3.14314580       7.47396278       4.60434580
H        2.84165263       9.28455830       2.21426296
H        2.92269731       6.27156687       2.22646213
H        0.16680482       4.48157644       4.15822792
H        6.87173700       5.09303093       2.72341919
H        6.39860487       2.50428820       0.02391068
H        5.63212013       7.05603361       6.72053003
H        0.39984018       7.83330107       8.97848988
H        2.48048139       3.88599062       4.40523052
H        7.88797998       2.54571867      -0.27969491
H        7.27671099       9.46068764       4.11813068
H        0.25276721       4.91398954       6.15567398
H        8.46440697       5.90247202       8.49105644
H        7.75676203       3.57089186       0.17629576
H        1.41025829       5.01194000       8.64569092
H        8.02213097       8.11347580       1.67740452
H        5.77124071       3.42541218       6.80398893
H        1.13517153       6.32852173       4.16975164
H        2.00296211       5.73028612       4.94431829
H        6.11631536       3.85906219       2.81085300
H        3.58688903       8.17876339       6.22716761
H        6.25510263       7.71109438       3.78028131
H        8.31551933       7.74430752       2.94510078
H        1.39020598       8.29658794       4.49686623
H        8.89172268       8.08812523       4.96705675
H        8.10333824       6.48305559       3.46403360
H        8.86098099      -0.03831782       9.61187935
H        2.75862932       8.61785793       1.36180389
H        6.66521883       8.69262123       8.74201775
H        2.85031843       1.08136928       6.95246744
H        3.08233047       8.94707489       7.84670734
H        4.94240999       8.96992874       7.34590197
H        1.24198079       3.91631508       2.25124741
H        6.22995377       5.46691418       6.71869278
H        5.97540665       5.91357660       8.60688019
H        7.29089642       3.97804308       2.97958040
H        7.26339722       2.27349019       6.66247416
H        7.38170052       8.03154469       3.82877445
H        9.38781166       0.82602078       4.19971704
H        8.68079948       2.15345573       8.56269550
H        3.68926144       5.00546265       9.52515221
H        3.37054825       5.40725136       1.07158220
H        3.27507162       1.35013044       8.02746487
H        4.94992971       2.13103390       4.03596306
H        0.90799886       2.20220709       8.71279716
H        8.63026142       3.21064067       6.47162819
H        6.94906235       0.00470055       5.49896431
H        4.94463158       0.54193318       1.82919312
H        2.20400691       1.65315127       1.83024991
H        1.74326611       7.24212074       3.79739428
H        1.47910023       3.23629498       7.38221025
H        4.17620420       6.03241444       7.31516457
H        2.28184485       2.38486695       0.29316700
H        0.67120743       9.06322861       4.20507526
H        4.03009748       2.08225513       7.94063330
H       -0.24374700       3.98209858       6.75773764
H        1.12690389       4.62762356       3.64339757
H        4.53732777       3.44410419       4.02818918
H        2.45223546       7.12982988       7.95634413
H        1.01995039       0.86594820       8.91264725
H        4.59412432       5.39573240       2.11040139
H        4.15951967       2.27150798       5.66731834
H        0.83040488       4.43839788       7.01121283
H        9.05658531       6.04772186       3.40210652
H        6.89817476       6.77164793       0.62482136
H        9.09928131       5.20006609       0.84580564
H        3.58281398       2.81979084       8.67619324
H        2.91486788       7.52506208       0.47939482
H        1.88781679       2.65768743       5.32820892
H        5.91699362       3.84481764       5.76808310
H        9.42665672       1.98178756       2.62219810
H        5.85363722       0.90509528       0.42132190
H        2.98223639       8.69987965       4.86348343
H        3.54085255       0.37486273       3.25690436
H        3.03037763       2.54992676       5.88138008
H        2.41493821       7.15811205       6.17404747
H        2.66533089       4.61220741       1.46277034
H        7.38808870       0.37384501       8.60069275
H        6.45610332       7.63220692       1.69701076
H        0.83173698       7.86666822       1.83651316
H        4.93693018       6.00913286       0.68990022
H        2.06158924       4.85443974      -0.03929125
H        2.12076378       0.19983226       0.84253138
H        0.90085065       4.03065395       5.75552273
H        8.19111538       8.77950764       9.03465939
H        4.88394451       0.99490112       8.98544884
H        7.79489279       0.33217278       1.39305663
H        4.29452801       8.53982067       3.49944663
H        6.83703899       5.29946136       7.79647017
H        0.20678437       7.26964569       6.66798258
H        7.83322287       5.99233627       5.05140162
H        0.93107605       1.62012744       0.24582195
H        8.71140194       1.29206169       4.87726831
H        6.88156796       1.16559565       7.64415836
H        5.97789145       4.62059879       7.92593431
H        1.37904859       1.00777221       7.71151972
H        0.66850978       7.21921635       3.79302526
H        2.69067001       1.74000072       3.57058406
H        1.79768002       1.38038886       2.89566898
H        3.94462991       0.82727587       1.55618238
H        5.91154814       6.46781969       1.15890539
H        8.57111645       5.43857622       5.44135237
H        2.41289735       0.22007446       5.18282986
H        9.45633698       8.30871677       4.02508974
H        4.23666191       8.93360424       2.04090333
H        8.45143509       1.99180591       6.30233145
H        2.12076974       8.59966469       0.28088406
H        0.12785056       2.75233054       2.00126004
H        3.82130027       3.13800216       5.06431627
H        0.06356420       1.86529350       5.48944855
H        4.87792730       4.16858721       5.08194685
H        8.44597912       9.18371487       5.08803749
H        2.02691150       5.29424381       3.55566812
H        9.26367950       4.50035667       9.63339806
H        0.94803590       0.69865841       4.49653196
H       -0.05787620       2.46262717       6.44369888
H        2.96246076       6.43658924       0.35065120
H        5.10963917       2.98207617       4.66866827
H        6.29812050       8.16672516       5.85330725
H        6.72335148       2.52048659       2.76089978
H        7.24730301       2.99028134       5.79849958
H        5.51562643       3.12141275       0.87282497
H        7.26700926       6.85806513       2.63880849
H        4.37086916       7.99954891       7.06300306
H        7.89305544       2.56604552       7.37164450
H        2.55531454       6.21136427       5.72234106
H        0.71933246       2.70100427       3.20298171
H        4.71376419       1.41276479       0.59988856
H        5.92737103       4.41691065       6.64205360
H        4.69476271       3.78416300       9.37170219
H        2.55409241       4.56998396       5.95665550
H        0.79539496       2.79245472       5.67240572
H        8.94660091       7.14688587       8.75410366
H        7.88470030       6.00364828       6.13442135
H        5.46009445       9.29163933       4.28094053
H        4.41560364       6.01858616       5.14138269
H        5.09547377       2.37727737       7.40556622
H        3.55330968       3.45245981       0.25123504
H        8.88004684       0.79878455       5.77857399
H        1.09772706       1.77171457       5.00799227
H        3.72248697       4.62951374       1.74004865
H        6.33887434       2.10109782       7.32163525
H        6.87861300       7.61132050       9.16310406
H        8.35815620       0.98256564       0.37834105
H        8.61128712       7.75144958       8.02662086
H        4.71664143       6.66959810       5.85448313
H        2.16367388       8.16244698       8.72351074
H        1.22942030       5.61661816       5.82564592
H        5.86500120       2.18555927       1.18009651
H        5.92486525       9.26992416      -0.10570981
H        9.35384083       3.81717181       8.43537903
H        0.27155325       0.17399843       6.74250603
H        8.86897945       9.48513699       2.62313890
H        3.95131254       6.74891233       8.76100636
H        5.22788143       6.34288120       4.33558655
H        8.76595497       2.13419580       0.73424792
H        6.04332447       3.55854058       9.33255005
H        5.64289331       0.96949977       7.04254389
H        2.77862000       2.55990529       1.25251508
H        8.79694366       4.83959723       2.05061841
H        4.70566940       7.79182243       4.17143774
H        2.12210822       8.40408421       2.53702903
H        7.86831188       1.93325853       1.85383189
H        5.79743671       4.30885315       0.61375529
H        3.92029452       7.33739519       7.80230284
H        4.60325670       5.45087051       4.41012955
H        9.37543774       5.57791615       4.29557896
H        1.49322236       5.61058187       2.40251541
H        5.83047295       2.42886686       6.27783442
H        3.14443159       4.29513168       9.08724976
H        3.55651665       9.52489185       0.43406320
H        6.58088589       7.08503866       5.20253897
H        2.05309010       5.39915419       6.60927153
H        7.50240850       1.35620809       0.86207241
H        0.13389394       3.13914943       7.50843573
H        1.46324062       8.97248745       1.13311732
H        0.01243236       5.05699682       2.74618268
H        2.01203370       2.79212809       2.79486895
H        0.70745891       2.60718894       4.27755594
H        3.79133821       7.72882509       1.65918136
H        5.15178585       7.54678679       7.97676277
H        5.17567301       8.59685040       5.84514189
H        1.44858658       9.10223866       8.98126125
H        8.97789574       8.98795986       1.05299079
H        4.41145182       9.46550083       4.59680939
H        0.75381571       3.86719894       7.89084053
H        0.44505209       5.87174797       7.06053734
H        3.55214167       1.84002376       1.47375298
H        1.09412372       3.58215427       1.05238032
H        2.13863635       6.50124931       7.03646946
H        2.35429382      -0.08865292       8.51824760
H        4.97327471       6.41254091       8.06288433
H        1.25490844      -0.21534865       4.97444963
H        5.43813515       4.86188841       1.44209981
H        7.08105135       8.93654728       0.31807119
H        1.70943153       8.93943501       7.94835854
H        5.40490484       4.54387569       3.95069480
H        8.07779789       4.57979679       7.72564316
H        8.96331215       0.29910883       7.95941067
H        4.18321323       2.19584656       6.72093868
H        3.86507010       6.66248655       1.47416306
H        0.84549057       4.55138874       0.11379606
H        5.54863644       3.41468430       8.21578407
H        7.96241760       4.08602619       6.28947687
H        0.47335470       6.94687366       7.90120554
H        0.90365946       0.37866396       0.96481889
H        0.42493576       9.03461456       1.42200351
H        1.38863945       1.48779082       3.86406565
256
Properties=species:S:1:pos:R:3 pbc="F F F"
H        9.21132183       7.50561285       4.32674122
H        1.94070077       4.54437876       1.15080023
H        6.24314260       1.51233065       3.11609697
H        8.94573593       4.35484076       2.72034740
H        0.56776214       4.56822109       2.17505836
H        0.55648309       2.38358212       2.10167408
H        2.02731347       8.94971085       6.15117168
H        0.57295883       8.05324841       2.89490223
H        1.40050161       0.21820329       0.58864582
H        0.24058990       5.54735899       8.75399017
H        1.57415199       5.32482815       4.60631895
H        6.69350815       5.79166174       0.59867001
H        9.55872345       3.83587122       0.12918058
H        3.03573060       7.07106066       5.71903753
H        4.27860880       3.42092633       3.36976242
H        8.90871620       8.54395580       4.86858702
H        6.45172024       5.92057276       1.56567836
H        8.76626968       6.28215790       2.41117311
H        2.65298963       7.38714981       1.68916655
H        2.69898462       7.62936735       0.35099468
H        8.55026531       8.12344551      -0.22502187
H        1.14720464       1.25333035       1.94663811
H        5.56981564       7.58998537       0.39992455
H        5.02568245       4.90686798       7.16036844
H        4.73694563       0.36973488       8.60498142
H        4.93272924       2.89861059       9.02575111
H        4.08012629       7.21618986       5.97844362
H        2.56659460       9.07263374       8.93887711
H        6.95526218       7.85699129       2.75061679
H        1.02820909       6.24272585       4.69585371
H        8.61429119       6.54855347       1.19056809
H        3.56534529       6.85252428       7.91841841
H        4.44276524       3.40984058       2.23969555
H        0.45687774       7.19455242       5.06840086
H        6.76342344       8.11135197       4.28613043
H        1.83675277       0.77431393       4.30555773
H        4.88167715       7.49877071       1.93841100
H        6.48634911       2.73805475       5.08001471
H        6.95107889       4.64437532       5.13399363
H        7.36154366       2.58729315       6.83254957
H        1.77821207       2.97875881       7.39392233
H        3.02203107       8.22100067       2.17503190
H        3.54746151       1.92752671       7.89256334
H        8.28335571       7.09744501       0.28785509
H        7.31570101       6.93188429       5.07760572
H        5.29199791       2.44779134       7.70298147
H        6.60932493       5.42233610       9.02406406
H        6.58425903       6.83621025       1.18795562
H        4.28773737       5.58553362       6.32851696
H        3.71978092       9.08019924       1.08955550
H        1.89624822       7.17574263       2.46997046
H        9.17504120       5.40832043       2.09700394
H        7.22254324       7.74547434       8.48900032
H        6.09654045       2.75248122       0.62096804
H        3.66720152       6.73291063       4.66923523
H        2.16984153       0.24113871       7.74592113
H        3.97328806       2.02287602      -0.17523837
H        9.19702053       0.59687567       8.24038887
H        4.17322779       6.83129644       3.52395606
H        7.66976452       4.71466255       6.70841503
H        1.93138874       3.91677809       0.31226617
H        9.25611210       2.94442296       8.42453861
H        2.15357113       5.83915710       5.32120371
H        8.70861530       0.65272796       3.08455944
H        4.81855440       4.64954138       6.16314554
H        0.06795609       5.15102148       3.41634703
H        3.09062743       5.60644197       4.03824711
H        5.36262035       5.55530930       5.51674461
H        6.78734064       8.82041264       7.46372986
H        5.72628689       0.64373004       4.34903622
H        9.31773281       4.74629927       0.11761425
H        4.40536213       1.27829325       6.61261368
H        8.35475826       6.16198206       4.69946671
H        7.62150574       5.57066631       2.79033661
H        8.55238724       6.97022104       8.61245632
H        3.81627703       0.03675527       9.19028568
H        6.82594490       5.06527138       7.68911695
H        3.75260830       5.00423813       7.55509996
H        1.94915521       3.93575788       2.91376758
H        3.89935803       2.51620793       6.68343449
H        4.50491142       5.43127155       3.61841178
H        6.21196651       6.58380365       5.94943571
H        3.68580198       8.00039196       7.37095356
H        6.45896101       4.61615515       3.37250733
H        7.58911562       1.13758457       7.50247717
H        8.02601624       8.76571083       4.05375624
H        0.35680014       9.05001259       0.23484156
H        9.41074753       1.36951387       7.49608707
H        6.59762335       2.35118318       1.71322036
H        4.00035954       4.51374769       1.11063421
H        2.05356646       2.49778366       9.67911243
H        6.26979256       0.54265010       0.71226472
H        2.43017411       1.17210865       8.88771152
H        8.71527863       3.00513411       6.34554482
H        1.73186386       0.22272232       5.28433323
H        4.93630552       1.41350079       7.85220289
H        2.75748634       1.46004224       7.31869984
H        1.78827810       8.32568455       5.28780603
H        1.93515038       2.57377648       8.44541454
H        3.08822942       5.65149498       8.19069386
H        5.06607580       4.54071903       0.62787271
H        0.82394886       8.59813881       4.64469099
H        5.99374485       3.84143424       7.93410206
H        2.25493765       4.02013636       7.28146505
H        9.55787086       3.79604220       6.21356630
H        4.24067068       0.74193889       5.23771143
H        3.25535154       2.95595479       8.80204773
H        0.98146641       1.89589429       6.85882282
H        8.04932022       1.28749609       0.78955567
H        2.07784915       2.72645068       4.73332119
H        1.85259116       5.36968756       6.24840879
H        1.44445539       5.36908579       2.76012588
H        5.11849165       6.57974243       6.65740967
H        9.03447914       4.24094677       8.12407207
H        4.34211445       5.52835417       8.59216595
H        3.91792321       7.97543287       0.54363388
H        1.33036780       2.19734597       4.00783539
H        6.88884449       5.68312645       5.51008224
H        1.91898036       0.83143550       2.67366505
H        7.49510908       2.96720243       0.71462274
H        3.16244173       0.79189765       3.13052678
H        4.00378609       0.61728263       2.24667954
H        3.05908942       2.08992100       3.66402793
H        3.01130605       7.00329924       6.89284563
H        2.23367238       5.23984146       0.14446533
H        3.12841201       1.09331453       6.01424265
H        5.58969498       8.50605679       5.85287571
H        0.32356444       6.02761841       0.65099221
H        5.88437462       3.72813559       0.69912845
H        3.25667620       4.13676453       9.03146553
H        2.64936590       1.12325740       0.95736289
H        8.87043953       3.31110358       3.69733405
H        0.96833730       0.88644910       7.91487503
H        4.60727549       4.24239063       9.08089256
H        0.32309160       7.47892618       1.96086121
H        2.79057550       9.27135944       6.86893702
H        4.03829908       6.57821465       6.94336796
H        8.95551968       7.36667538       5.67990398
H        8.74389362       5.88885450       6.21765280
H        2.93350363       1.61454380       2.19589734
H        0.75872201       0.06844609       4.29954100
H        9.19142914       2.23508310       5.95032549
H        6.13036919       5.86876440       7.07670212
H        8.69053745       1.27648902       9.22162151
H       -0.40932292       6.12276459       4.07381058
H        0.77748507       2.21846533       3.12444806
H        1.74409556       2.79879975       1.60676479
H        6.60168409       1.35010529       1.88064039
H        5.11868954       3.27510405       1.42045093
H        8.87617779       4.78970098       4.46486139
H        2.60106230       2.21741605       1.46164012
H        8.81800842       9.99312496       4.66649961
H        6.40920687       9.10362911       2.43567252
H        8.91714954       2.07070541       4.92694092
H       -0.08458768       6.63400698       7.92858219
H        1.08247137       3.36989975       2.94997716
H        0.18149912       2.88968086       6.69396353
H        9.47778225       1.21341205       5.17858219
H        0.94091713       8.29017925       8.59254646
H        7.32073689      -0.03526541       2.85842657
H        2.07319999       6.93287325       3.84279609
H        9.54534245       2.36031795       4.15675640
H        2.83209753       9.47925377       5.56076622
H        7.83476830       2.79180455       8.02478123
H        1.10127616       5.32400513       1.76243770
H        5.44509125       3.88293767       4.21742392
H        7.32715750       9.01347256       5.22077990
H        5.15432405       8.57394981       2.55949187
H        5.10416555       2.85889268       6.60268641
H        8.41881084       2.61108637       1.34846711
H        6.14787245       7.54926395       2.05607271
H        7.83821583       7.78650904       4.62809658
H        5.68321371       4.09600163       9.09687805
H        0.83667725       5.71433735       6.32223845
H        1.18182909       3.63944840       1.81133020
H        4.83892393       0.33775067       1.19553685
H        4.81286240       3.83085847       8.15119362
H        8.26126671       1.80207741       8.51703930
H        4.69986057       7.13002062       4.57633495
H        1.10228956       2.05241466       9.26465893
H        0.98529840       4.61684752       8.62185097
H        7.71918058       5.71080780       7.10772657
H        5.32303476       8.19506359       4.51030779
H        5.26178122       6.33346987       5.00480175
H        4.32384634       2.81179142       7.76154280
H        3.74275494       0.96472692       8.87693310
H        5.84071350       7.24764585       4.97509670
H        0.50054532       0.55665064       3.20678377
H        6.08574581       7.56413078       8.79883862
H        6.64588594       0.91297275       7.95219421
H        6.32327795       6.50732613       9.13818836
H        0.84385133       2.28422022       1.07541478
H        0.50693554       8.71275806       5.67916584
H        4.46918011       8.20483017       8.39266205
H        3.11301422       0.70171434       8.09413338
H        1.25633895       4.68832731       7.13550425
H        7.00683928       4.43279886       1.14795864
H        9.34896374       1.67006004       8.46673393
H        6.79986286       3.65842724       9.69407558
H        1.22723460       1.01105034       9.06207371
H        0.90359986       7.00147963       3.99550700
H        1.73929799       9.20843124       2.10639286
H        3.95767689       7.89533663       4.99204636
H        7.79863739       7.53698301       6.64005232
H        7.92124128       4.83308697       2.08563232
H        5.59843016       8.10664654       6.97954082
H        5.41995859       0.26807645       3.41530228
H        7.43820047       6.03784084       1.36209309
H        1.68773770       7.05441427       4.81756687
H        3.81309891       8.79507160       3.27263594
H        8.18126869       1.66430855       2.22362447
H        9.52367020       1.50585866       2.47526026
H        4.57663727       7.03189850       8.16134453
H        5.84745312       6.16828823       2.60203838
H        1.08336210       3.94602680       6.17806911
H        1.62971520       5.91204262       3.67184520
H        6.71712542       2.39787316       7.72493076
H        3.62788820       5.14019394       9.19256306
H        3.61109495       2.97948956       1.12120199
H        3.92727447       5.70312452       4.69079590
H        3.20376706       5.97835207       5.81602859
H        7.58450127       8.85287476       1.92178416
H        8.40808105       3.29875398       5.11663198
H        1.34406185       9.59762287       8.53906727
H        0.56848413       6.45456600       2.15261292
H        8.97654247       2.56701303       2.80110359
H        9.28059292       1.13503635       4.10916901
H        3.99563265       8.19705963       1.62543797
H        7.57285738       5.53518867       4.61548042
H        6.74485350       7.70340776       7.54544163
H        2.55014563       9.15211582       1.21944749
H        7.60623121       7.53640175       1.28231442
H        3.89644694       4.21867943       5.47647429
H        3.27437425       4.05450296       6.93703318
H        2.15056396       7.76014519       6.26712513
H        2.77055717       2.69289875       2.79477954
H        2.93391156       6.63934898       9.25185966
H        2.75636292       5.53303289       7.16539145
H        2.84150290       2.10066700       8.91515255
H        6.47908211       8.15295315       5.23922682
H        1.93261087       7.64999676       7.41486454
H        5.51967144       2.50073361       2.99238944
H        0.36470544      -0.15399960       8.58984470
H        1.80744505       1.49976742       7.55509043
H        4.78885221       6.40824461       1.50452101
H        6.07030535       4.17839098       6.68038559
H        9.13928509       8.06681442       1.17544186
H        2.39906645       2.24945450       6.56303644
H        4.62390900       8.56908607       3.82295561
H        0.04160772       2.61577535       0.52447057
H        7.46300411       1.12129104       8.82047558
H        5.26595497       7.43279552       5.91203165
H        2.53249097       7.94567680       8.36522007
H        2.69002986       6.39287376       1.16954541
H        1.31834805       8.40798473       1.28346062
H        2.09955144       0.61247700       6.21322060
256
Properties=species:S:1:pos:R:3 pbc="F F F"
H        8.72641659       6.57232523       2.91884637
H        8.65124702       4.10017920       0.34292838
H        2.55793715       4.73975754       2.64667773
H        9.23496819       3.58785892       5.15479851
H        7.82785225       4.34042454       4.41120005
H        9.47524548       2.32280421       1.92803025
H        1.37974572       0.81179512       7.10420752
H        8.59315491       7.96939659       1.89662576
H        0.54784793       8.84662342       0.87644821
H        0.65588522       3.81055760       6.82983923
H        1.32432866       4.98420048       2.68441844
H        7.09134054       2.26168013       6.52311659
H        0.72395903       1.52774680       1.89596570
H        2.56955838       7.17049026       4.75528622
H        4.91240692       4.88191032       3.53353739
H        7.00015974       7.01071453       5.57931805
H        7.76122761       7.42395210       2.62702298
H        7.37825584       6.20985031       4.02871847
H        3.23604822       7.69394159       8.44573116
H        2.27146578       6.89395618       0.25460541
H        8.44031048       6.03300047       8.47513390
H        5.67331457       1.29705727       0.43555367
H        5.65728617       5.74975443       9.78132725
H        5.30552149       5.53236437       8.34169102
H        4.38521624       9.57412434       0.40842733
H        3.97206664       2.75582027      -0.00380142
H        5.44601536       6.08206654       7.24824810
H        2.59661603       8.50434875       0.83520544
H        5.85400724       7.06391335       0.25621900
H        3.35500836       6.48326826       3.91065836
H        7.47428656       7.60411215       0.45780441
H        2.92784071       5.41018677       7.35775900
H        3.90712357       5.25323772       2.64679956
H        9.55709457       5.69324970       4.12353563
H        6.22354841       0.19851349       6.02382088
H        2.35513091       2.33902550       3.60195160
H        3.41928220       9.06078243       2.02284908
H        5.64284611       1.13358712       6.36466980
H        8.22834492       3.75810957       2.58456922
H        4.60383177       3.49688315       8.92378902
H        2.81478357       1.85275960       5.58363438
H        5.45130348       8.75773144       1.92868292
H        2.12182927       3.03109860       7.79381084
H        7.15759659       5.47886276       7.73676443
H        8.42228508       6.89707613       4.18539286
H        2.92492652       3.32791686       5.92623615
H        6.41209650       5.31526423       8.43427277
H        6.53780556       6.60844803       8.54871273
H        4.32357264       7.86163616       4.05201292
H        2.40106916       6.82462215       1.92449331
H        9.59513569       6.64772511       1.53401446
H        7.46189642       4.85291243       6.46980762
H        8.70678139       8.99842262       6.86812496
H        8.70960808       1.42924845       2.34540200
H        3.18586802       7.76644897       4.15527773
H        3.06827259       0.68698412       1.96444571
H        5.41647434       2.67173123       1.15584576
H        8.70972538       2.61725926       6.46479082
H        4.67579365       5.01356459       6.68926334
H        6.51250124       4.93387461       6.93987465
H        1.24761069       5.07505941       1.54283476
H        2.99438953       0.26048607       1.02311254
H        3.85087442       6.21940899       4.98156977
H        1.39482045       8.36881447       6.43591785
H        4.64866686       3.93244267       7.86386299
H        1.46225572       1.87337697      -0.11158934
H        0.73755425       7.51765251       4.90245628
H        5.34066629       7.32237339       4.27227640
H        2.13563347       7.96697474       8.76705742
H        5.32146168       3.52570391       7.00026226
H        8.41205215       1.76815295       0.99554110
H        4.41258097       6.77027988       7.34144926
H        8.53113174       4.29510927       3.61772394
H        7.02781296       5.31850767       4.03588772
H        7.49691772       5.99326563       6.97596836
H        4.21239424       7.85969353       8.38994408
H        4.65722609       5.01333904       9.09645176
H        3.26267362       2.64390659       8.22176266
H        1.00967181       2.94670105       4.29741001
H       -0.07280046       1.34948421       4.82523537
H        4.94944763       5.92294121       4.67232513
H        6.78917980       1.17955613       2.89033604
H        4.16324139       5.31040478       5.62137127
H        8.34894562       5.04056978       2.55680180
H        8.21303082       8.96406269       5.80478096
H        4.83909798       2.30258560       4.37706757
H        1.37459326       5.92873478       8.50561619
H        1.33985782       1.02056313       5.82215405
H        7.95750427       2.64643407       2.23347616
H        5.14294815       4.41606569       1.58088386
H        2.61182404       1.96501040       2.55743790
H        6.89173841       8.96602154       2.02976084
H        4.30569458       0.93745714       1.39349294
H        5.73328590       4.23508167       3.55390120
H        4.72794104       2.51836920       6.20012999
H        3.26255107       3.42379498       7.07966757
H        4.26888180       0.13484325       4.55700064
H        2.39001751       8.50453568       5.52629805
H       -0.24059807       2.23224807       7.52540588
H        4.60590506       5.42825222       1.68928242
H        4.92002058       6.55722094       9.21263885
H        1.33856153       8.75045300       3.25612855
H        6.61341619       8.80608177       6.58049488
H        2.61716366       1.67216766       7.26627970
H        9.00597763       1.87834287       5.69980478
H        2.81791520       7.00567198       6.81338453
H        5.96177864       9.23920345       9.39645958
H        8.71680832       3.83672094       6.46640491
H        1.60458732       1.07936645       2.78508544
H        1.58202171       4.29792404       4.01873493
H        2.31491280       5.87555075       5.13885117
H        3.90114284       5.62169933       4.25232506
H        4.10149240       5.37815523       7.63735104
H        0.54657030       6.31330872       4.98851299
H        5.43168449       7.31605434       8.46757507
H        5.96227074       9.37559319       0.99396873
H        3.86698556       3.20433164       4.94462061
H        6.17486525       5.84266853       5.86926079
H        3.00966883       1.16640866       3.72942972
H        7.88757324       4.36816168       1.72288346
H        3.68617797       8.95671940       3.89155817
H        4.83706903       3.36859965       2.41643524
H        2.83517027       4.22638512       6.45593023
H        2.20254970       4.23976994       8.42671394
H        3.85548353       1.95162070       0.69327992
H        0.85172063       3.84133339       5.44979000
H        5.35929632       1.75623024       7.23073816
H        2.50630331       5.18055487       0.12289008
H        6.72868919       5.22447443       0.34970739
H        4.08687019       1.52574575       6.56392145
H        6.10994005       8.73970222       7.92843866
H        8.02937031       0.80827951       4.36224318
H        2.00725317       0.82540762       9.29601288
H        6.03228807       5.03078318       1.23023725
H       -0.19268927       5.10293007       7.80099916
H        1.68562007       2.13311720       7.23384142
H        3.41233182       7.04465723       1.83682978
H        7.64882135       6.07109594       5.85685825
H        6.56114674       3.58410978       5.13025284
H        3.11228371       2.35986137       4.66717911
H        2.15122271      -0.02906768       4.79291821
H        8.58250332       1.59350407       4.15032768
H        8.47757149       5.90033150       3.87473464
H        9.20421886       0.95044416       0.41353035
H        8.29265690       6.44152498       1.95947850
H        1.51725388       2.42682981       2.54214263
H        2.25637293       5.59189892       1.80429351
H        7.13681746       9.18179989       4.05368900
H        4.52522421       0.04571961       3.11987066
H        7.93054342       1.42538571       5.22644329
H        8.74952984       3.00941634       1.68713748
H        9.18037415       9.04455948       5.08407831
H        8.26254272       8.58829784       4.35185432
H        0.98839492       0.60322547       4.45110512
H        7.56850767       7.74273825       6.82368374
H       -0.01196288       2.25366879       0.78994507
H        7.51009274       3.32246232       5.16517639
H        8.75132656       0.12495628       2.31867123
H        3.04687762       6.61944389       5.74510479
H        8.84244919       9.54201317       8.54116631
H        2.22805715       7.70762444       1.44172859
H        0.59659737       1.75171566       2.98002815
H        2.43672323       8.66153431       7.40810394
H        6.91392708       2.74572182       7.76395559
H        1.31972384       6.35029745       0.96209365
H        6.35781050       4.99614143       4.79578781
H        7.59767294       7.61366987       4.62688160
H        3.00839353       9.61883640       3.07917523
H        5.25157166       3.79582310       5.39686632
H        6.15801620       3.79263139       2.03911972
H        5.86522675       7.98897266       2.46669149
H        6.62597466       9.09375954       5.00096035
H        6.54083920       6.33489323       0.59261292
H        1.16660333       4.82873821       6.29436064
H        3.79465127       6.61251497       2.59488487
H        8.21405983       9.30335045       3.60964298
H        3.08535194       4.41855526       7.74136782
H        8.80980778       2.26963091       8.69682026
H        3.23829150       0.23019496       5.22891140
H        1.06290269       0.77541071       0.88818043
H        0.33612576       3.50561905       2.41093469
H        4.95476961       3.67277741       0.43991113
H        6.46677208       1.22790194       6.99345589
H        4.71592093       8.03371048       5.18797636
H        1.80632055       4.74545670       7.36400318
H        2.78709006       0.65231597       6.63107347
H        4.91862297       8.77960110       7.69322920
H        9.81024361       9.39606190       9.22290325
H        7.15545511       1.49370635       5.92388821
H        9.19473839       1.07914162       8.83814812
H        8.53486824       8.03879356       8.65025425
H        7.83509827       0.24066223       1.39063275
H        3.03403831       9.33101845       8.28501320
H        7.55233955       0.25275597       0.12530893
H        3.56440330       0.29969025       9.44976616
H        2.87049985       5.37477207       5.96129036
H        7.58166170       3.37841749       0.90536088
H        1.14350748       2.83570623       6.63879061
H        6.90870333       6.85054350       1.74454284
H        6.40125132       1.23317218       8.98614597
H        8.58091354       6.09288788       4.87424946
H        1.49570096       7.99434853       0.80572027
H        3.68021560       7.95177650       5.06819439
H        7.99433422       7.22254896       7.73246384
H        7.28479910       5.22654104       2.68362641
H        6.21470642       7.86958170       6.89084816
H        7.97988272       7.94710064       3.57100582
H        9.80855751       7.59212351       0.70096183
H        2.46629310       7.81903839       3.15322399
H        2.12836075       1.60263133       1.35792744
H        9.14281178       9.34716225       0.73105204
H        0.35236365       8.89588833       4.04288960
H        7.18955755       7.68089390       8.78921890
H        5.87623501       6.22248554       2.74868250
H        2.81910944       5.26147461       3.94688272
H        0.29075283       6.91549826       4.10738564
H        7.37635469       1.36840725       0.79260576
H        3.95518780       4.23685884      -0.02892965
H        4.94837379       5.09526634       0.66042435
H        5.05977154       6.14593744       3.46801281
H        4.10069466       6.02801609       6.46946239
H        6.83785868       8.38012981       2.99796081
H        5.89681435       3.69270134       6.13838530
H        0.80330473       8.67740631       5.33644676
H        1.21653795       6.05175209       2.20494723
H        5.51501799       0.39024991       5.02837706
H        1.05002904       9.85838604       3.31598163
H        2.38612747       9.47797680       3.85852718
H        7.84897757       2.38270354       4.59448004
H        6.74870014       6.95141506       7.54249001
H        3.39577699       2.27816820       3.71009135
H        6.66394377       8.63722897      10.05904198
H        4.32666636       4.58340836       4.36837578
H        5.61368752       4.42513704       7.28110456
H        3.10450435       8.19962883       6.43404055
H        3.43044162       4.29760790       3.75505233
H        2.20899248       2.32687044       9.01809788
H        2.15424800       5.71433830       6.64455605
H        1.77428162       4.22380018       1.90683031
H        6.85893822       6.98548031       3.62698102
H        3.32731557       6.22379112       8.31226540
H        4.41864014       2.90316200       3.49983764
H        1.65410078       7.47695303       5.80744076
H        2.01425791       1.79632199       6.24022961
H        4.90534115       6.54337502       1.57567561
H        5.28915644       6.94834423       5.22754049
H        0.46002179       8.50521660       2.19153237
H        2.35788345      -0.38314620       6.48797798
H        4.75557852       8.32150650       3.08403969
H        7.06943750       3.36960030       1.72651935
H        0.71030140       1.73907232       7.34987545
H        3.82542539       8.86300564       7.27068090
H        3.69094205       8.50009346       9.05951118
H        4.90950251       8.44203758       0.85584486
H        0.24559826       0.03531313       1.68558598
H        5.54961967       8.71491432       4.77929258
256
Properties=species:S:1:pos:R:3 pbc="F F F"
H        6.13245726       6.36225033       4.07129288
H        8.38673592       4.44156742       0.92022145
H       -0.13320033       4.89242697       5.25792503
H        7.40350819       5.03924942       3.57717419
H        0.65896922       2.92636442       5.00115347
H        1.02328634       2.61872697       2.48182893
H        8.70373917      -0.15191644       5.65996075
H        0.67270100       8.38788223       2.43866825
H        0.26759195       0.30216461       2.79518723
H        8.82354641       3.58571720       5.79067945
H        0.27218324       7.53332472       0.84991419
H        6.18449354       4.65583420       6.57039499
H        3.16100502       2.43740344       2.63819361
H        2.02535391       7.62156582       3.71078229
H        7.67222691       6.22719622       3.78492546
H        8.08308697       7.37547779       6.87052107
H        7.88080168       7.44513273       4.19964790
H        8.02949524       7.29385996       1.43347538
H        2.23172784       6.25198269       9.68219280
H        2.36142802       6.61642933       1.77617216
H        5.34651184       5.94389391       6.24811554
H        6.35964394       1.66299391       9.19981766
H        5.53391457       6.97936916       9.48984337
H        6.74839783       1.66104269       8.12614727
H        8.43051243       0.68318051      -0.29501560
H        2.06919169       3.83196878       7.63188934
H        4.65481281       5.26901388       8.76707363
H        4.53455305       1.97741663       8.06339073
H        4.56102753       6.06901169       1.55079699
H        2.40675139       8.24015999       4.75371027
H        7.11275864       8.50380707       1.63992321
H        3.75799632       1.19613576       9.45598125
H        3.04910040       4.69518614       0.66288137
H        0.56237537       3.38166428       5.91777420
H        4.39289141       9.31495190       0.15426363
H        9.07403755       3.89623857       4.89575148
H        4.25853825       1.38015747       1.29361165
H        4.89246464       1.24723470       7.31595612
H        7.37493086       1.74884176       2.72848797
H        3.82840514       2.90973067       7.31432199
H        4.61662102       2.16783237       6.66832495
H        5.61606312       1.21363413       2.17274880
H        9.45675373       2.53574514       6.06743526
H        7.17741919       5.03691196       8.07424831
H        0.47562921       8.92770672       5.64216471
H        1.45578003       3.62904119       6.79594231
H        2.90566087       5.00640154       9.25626945
H        7.63444901       7.90349627       0.55272728
H        3.32576370       0.81154197       0.97806209
H        1.67761827       5.68403912       2.18365312
H        0.79875612       5.96511745       1.57227767
H        8.09969521       4.21169043       2.12239504
H        1.17952383       0.14785554       6.46568489
H        0.60832614       0.11121493       1.16561663
H        2.43768001       5.79582167       4.73743200
H        3.64703083       2.00212049       0.74949336
H        6.31182194       1.78174257       0.98365450
H        8.97959423       3.11389852       8.23035812
H        4.50692654       4.20066214       6.43209839
H        8.72082806       2.50913763       7.38521338
H        2.11699653       3.11217999       2.71052146
H        3.58366585       6.96109343       1.68610334
H        3.26837778       3.78279853       7.10301447
H        4.04059362       7.77046585       5.59190655
H        7.86219311       2.36329603       7.89804697
H        0.92645401       1.18064189       0.54118115
H        0.58784276       8.62337494       7.39902639
H        5.29007053       8.30269241       3.22122264
H        1.41342306       9.13910770       0.59645712
H        2.57860231       4.17866993       6.05754471
H        7.75692225       1.48507369       8.72067738
H        5.35993099       5.92373657       7.66705132
H        8.64603519       8.18883991       0.70401120
H        5.97384977       2.44476533       4.01075554
H        7.49954700       6.84494829       9.81028461
H        7.23818111       7.89239693       5.25300217
H        4.02422428       4.25427818       9.25913334
H        4.26844788       2.41693735       5.04542017
H        2.32276225       4.39417696       4.95827866
H        8.24695015       1.33752954       4.59515047
H        5.50918627       4.86001015       5.63979769
H        8.15053463       0.40844646       2.67020822
H        3.22604299       4.90589237       5.19865990
H        0.60910463       7.42508936       2.77750230
H        8.33001804       9.12510204       6.58490181
H        4.80240345       0.34243605       2.80559564
H        0.15046570       5.46095610       6.73724222
H        9.17487144       2.79041338       4.90806007
H        6.14674711       2.91650248       1.77177799
H        1.32473195       4.42071533       1.21029150
H        2.61746812       2.12940383       1.26797402
H        3.19815159       8.26980686       1.73192811
H        6.00243616       8.32088184       1.90633893
H        8.91373253       2.72584105       0.10859625
H        5.82818890       3.54250407       6.00765085
H        2.56660151       4.75294352       7.19616032
H        4.70000982       0.33675486       6.05591917
H        5.30539799       1.17744505       6.08818817
H        8.00883579       0.60460252       6.29866743
H        6.62412739       3.96395516       2.07579732
H        4.23928022       7.53692245       2.24217796
H        1.77026963       2.91745925       6.09707165
H        7.54827833       0.73018748       8.03684235
H        1.67210257       8.07701015       7.44336939
H        6.05556154       1.90515864       5.95009422
H        0.83441377       6.47966099       4.99712944
H        7.08135891      -0.22039917       6.34518433
H        9.23166275       4.20039606       1.82770824
H        3.17124462       1.22318709       3.19982886
H        0.33077580       6.35378122       3.89989090
H        2.72442436       6.04244041       7.81846428
H        4.93644953       4.94845247       2.80121827
H        2.36581254       2.09344053       8.20816040
H        9.21319389       4.11548090       6.52239084
H        4.39636755       7.40074301       1.27132702
H        7.41879368       1.33541441       1.64276576
H        4.12441206       0.92746913       3.80966592
H        6.44354200       5.92847538       8.19995975
H        3.39761853       7.74232244       3.05161929
H        8.65759277       1.63160729       0.27366674
H        4.43486261       1.21363997       5.02019310
H        4.73110151       2.79490471       3.37016368
H        9.51599693       3.78977990       9.99915886
H        2.44007564       4.12694597       9.30576897
H        6.62390327       0.65388525       0.60405862
H        8.13474751       4.72983837       5.75528049
H        5.21538877       2.97079825       7.03672695
H        3.82314992       2.77004147      -0.01385999
H        8.35165405       2.25390315       8.81511116
H        6.06961584       1.17729020       5.18342543
H        0.81884390      10.21124840       8.56124401
H        9.44401550       0.61288786       4.56907701
H        3.67282724       1.70413685       6.86165953
H        3.85385561       5.35755253       0.29927319
H        8.04391670       6.07271290       5.39986420
H        2.66921377       1.38679802       6.58639240
H        2.01394844       9.13888073       2.41646194
H        8.35641098       6.52480602       8.20538139
H        7.99205112       4.19819212       4.38197327
H        3.58723164       3.51485896       4.24185324
H        5.25563478       7.80154467       4.29914331
H        9.21496677       1.20031095       1.93619072
H        8.87427807       6.78389978       4.41640425
H        1.57258523       1.38204539       2.93964052
H        5.38232279       6.83083010       1.34431791
H        2.31059670       1.47793424       2.11773419
H        2.04645205       5.13742542       0.74282324
H        5.87138224       4.78919506       3.48939848
H        4.84185505       4.07621288       3.42731547
H        7.81519938       0.60703176       3.66227317
H        9.42246532       0.13123953      -0.20386317
H        1.38952696       9.69895744       5.34629107
H        6.31155443       7.04370689       6.15658522
H        0.54720539       8.67134094       4.29865217
H       -0.35456747       9.67899609       6.95069170
H       -0.17173570       1.81872988       8.82962036
H        6.94358730       2.49062109       5.74179506
H        8.84569740       1.10547709       3.12613869
H        1.29980123       5.56805944       4.01289034
H        9.49788857       1.17801666       7.32780075
H        1.79215801       7.32641888       0.18394649
H        0.66664171       1.49118829       2.57700777
H        1.56678557       1.56982553       8.34756947
H        7.82279015       3.73325253       6.30432415
H        0.49191797       5.04066467       1.62823761
H        4.65557861       6.77725983       5.99362707
H        5.76590443       5.95450401       5.15442324
H        0.83708763       1.31780839       3.71216846
H        5.28434753       3.84658718       4.85458565
H        6.60108995       4.75641775       0.89711022
H        6.43568087       4.40824318       4.26618052
H        4.94925880       9.41316700       6.88548279
H        7.27095032       7.08744478       8.21393013
H        0.77343786       4.43909883       6.10350037
H        1.45264125       3.43683839       8.91401005
H        3.76662970       0.22596969       5.31296825
H        3.56706810       1.89010131       8.81687450
H        1.98711145       5.44727802       6.69561243
H        3.95884776       0.20415625       6.93445206
H        1.40011656       1.38373506       1.49576366
H        0.79037446       3.81816697       2.05757380
H        3.68669701       2.17374539       1.89049506
H        7.14904022       1.39662457       6.38036108
H        5.32997990       6.64949560       8.51704884
H        3.66183543       5.67834377       8.89661503
H        9.45846081       1.70591438       4.89709187
H        4.74975681       1.22529054       0.29303524
H        0.79766762       7.60913563      -0.33208543
H        2.40520859       1.84667993      -0.09709929
H        6.83292532       0.59505534       5.58655357
H        2.78688240       9.20101643       5.43049574
H        6.90299177       0.38865924       1.73868382
H        5.03953552       9.37027931       8.39413738
H        6.04224253       9.27718735       1.40033460
H        5.95262909       0.39346895       9.12576962
H        5.66134262       4.42187834       7.64950418
H        7.35436344       2.17917919       9.56010342
H        2.81184840       2.72173762       4.35447073
H        5.69609404       5.85245275       2.05482531
H        0.33445871       2.93963504       9.10194778
H        9.20281315       4.95315933       7.69369268
H        0.63038677       7.71195316       3.93714285
H        4.72364998       6.60580492       2.40524864
H        1.12060738       7.51034498       8.10437584
H        8.69892693       5.60450268       4.03256130
H        7.77459812       9.43811321       4.63446999
H        1.35660660       8.08158875       4.73091507
H        1.37961650       7.02932310       1.15822494
H        3.04669404       8.94253540       2.97102714
H        1.46874547       2.41658664       1.51667535
H        0.85816711       2.04835343       7.27676916
H        2.14943624       9.01745987       3.66083193
H        9.50726223       6.99585533       8.19001579
H        5.23743868       8.02287960       8.20501995
H        4.39321232       5.57021189       3.80120754
H        0.19740741       8.79390812       3.32706475
H        6.96234751      -0.46591005       0.72465867
H        4.00041676       5.89261627       2.31747007
H        4.99863386       3.72078609       8.52148056
H        5.59191418       7.00303793       5.24286985
H        6.18334723       0.68109322       8.05004025
H        7.27823734       5.30355310       4.83410835
H        6.83699274       2.34557295       6.85625982
H        2.23348975       0.59827501       5.83650732
H        1.09978116       4.12608576       0.09017152
H        3.00113344       1.88304591       5.44762707
H        5.92596531       8.54604244       5.21772909
H        2.58999372       1.11090147       4.93828154
H        8.40294743       1.56955147       5.70391512
H        0.08554206       7.40319395       5.63068247
H        3.99359393       4.78298235       2.29409552
H        6.12787247       8.46699238       0.81050164
H        3.90018964       4.10522747       5.33156490
H        2.57914352       3.31487322       6.63221645
H        4.76102591       6.01959133       9.63712692
H        3.66428852       5.87056017       4.51397610
H        4.69861269       2.49495387      -0.35640541
H        1.76732886       6.60587406       7.75045729
H        2.95867872       4.74022245       2.21302533
H        8.62270927       6.00381613       3.12955356
H        1.89050913       4.78622437       8.43216133
H        5.80362034       2.67734504       2.86275220
H        0.16934085       5.24377632       3.54473662
H        1.84310389       1.77370703       5.94104815
H        5.20639372       7.78886890       0.74716628
H        5.09222174       8.07071686       5.81950426
H        2.02435946       0.37215018       4.46004295
H        3.41531324       0.06104677       9.38501644
H        6.81687164       1.72812331       3.64277530
H        7.24124813       2.94677544       1.36557782
H        1.63671470       1.56418741       6.89003801
H        5.51819181       1.69301772       8.37587357
H        2.24490929       7.88653183       1.42199171
H        7.64983559       8.59711075       7.27373934
H        0.74833274       8.32600117       1.13251364
H        5.94317007       7.19656229       2.63187504
256
Properties=species:S:1:pos:R:3 pbc="F F F"
H        6.61924458       4.45085335       3.61039424
H        7.72350931       5.21673012       3.71578002
H        8.63405895       7.51044130       5.87835979
H        7.85489035       4.45469189       2.82482433
H        0.36796865      -0.34416622       3.38829470
H        2.50708413       1.42974091       3.46789503
H        0.31108639      -0.00646121       6.47193336
H        3.93443608       0.26703188       4.07830000
H        0.71164638       0.99716222       1.18043435
H        9.24969673       2.45600319       5.96517944
H        9.51655293       6.85652637       6.25716019
H        5.67740822       5.76864481       5.48356390
H        3.31923294       3.73314714       2.79098558
H        6.19706154       9.52929020       1.09485519
H        7.51091480       3.91898131       3.85447407
H        8.45245647       6.63976908       7.20185328
H        2.22654533       9.11971760       4.81871462
H        7.46229029       8.14227009       1.26510763
H        2.55251265       5.99533939       2.41891646
H        3.54510021       2.52294779       4.85309696
H        3.67574811       8.35770702       1.68100417
H        6.84921312       0.67603493       0.69182974
H        3.94698620       7.75120306       8.55220604
H        8.05152512       1.95689309       9.42956734
H        1.76239228       7.81373596       7.08579206
H        1.81323087      -0.03332599       9.29018116
H        0.97683710       5.88155651       0.24421647
H        6.98886871       4.40583563       8.87450504
H        0.61958462       2.34110522       3.11793661
H        1.05347121       8.92296982       5.69689083
H        5.79050779       5.49227905       1.30329788
H        3.77139616       0.36911762       1.83509171
H       -0.10571717       5.66120672       0.51938826
H       -0.23839062       3.17236614       3.98245358
H        4.49206543       9.05393410       8.23407650
H        1.35619831       3.77749944       7.06522655
H        5.73574352       8.04404449       1.15374875
H        5.66537189       0.62609571       7.57009602
H        8.61485481       1.42983639       3.50215721
H        2.85969043       5.24468184       6.16908503
H        6.85954380       0.43701479       7.67697001
H        6.80338764       7.60319519       2.32287312
H       10.05918789       2.38737106       7.26579952
H        7.78659868       3.72794318       8.33817959
H        8.07001019       6.58146715       4.60674000
H        0.10433783       5.43397331       7.95395660
H        2.31263256       3.81511831       7.93542147
H        8.87763023       5.11154842       1.73726189
H        4.36902237       5.41654682       2.31985664
H        7.68784475       8.74729729       0.38391751
H        0.80769104       5.50141191       3.79065704
H        8.39437199       5.10702944       8.25512600
H        4.09619856       7.92071056       6.87420988
H        8.04618740       9.27884865       9.01714706
H        2.74990797       4.96065044       2.54131222
H        3.82398868       2.45128179       8.37291908
H        5.51994801       1.78283787       7.20276499
H        0.38236409       3.51675296       7.34957409
H        3.02608037       5.97631407       8.91489792
H        2.73885489       2.84365988       7.43428040
H        1.22690189       4.83616972       1.48701632
H        2.71551752       6.61191988       0.52161193
H        3.20577550       4.41655779       7.23619652
H        3.13356209       7.83683968       5.72936821
H        8.24359131       2.99248838       5.51627016
H        7.90347052       2.62412095       3.09920740
H        1.45479751       7.75224018       5.74596882
H        7.01084518       8.95902348       1.93861389
H        0.70520085       0.65847832       8.46704865
H        0.79335439       7.00460005       5.51118946
H        9.01456642       9.04393768       7.56675816
H        7.77685547       1.89006257       5.76259279
H        2.51200509       1.81581795       6.15729427
H        3.61732388       0.73439401       2.95318127
H        6.65011692       9.12614441       7.31131887
H        7.94872189       7.78337955       4.98171377
H        9.06205368       3.47293043       8.56171322
H        4.39958477       2.84935856       5.81063986
H        1.56602132       6.27199602       5.85245180
H        9.06199455       1.54950237       5.07291508
H        5.19317389       6.42768431       3.76438594
H        8.70246315       8.76008129       2.05893993
H        4.02501917       5.88405704       6.37375116
H        3.01131248       6.99358082       2.68655682
H        0.72036630       8.72490215       7.22290277
H        2.95591569       0.42808530       9.14536858
H        9.37417316       5.05338287       5.49938107
H        6.56488895       4.68081236       4.89615488
H        7.05023241       4.12855387       1.66314209
H        8.15912151       2.93744993       0.88986850
H        1.15042543       2.71825171       3.95376968
H        4.70056820       8.47376442       2.59511781
H        9.21640682       0.57809317       2.84055448
H        5.83279037       0.49237978       2.58197165
H        4.50072289       6.02707624       5.31814575
H        1.93635333       7.06901646       5.14733028
H        4.78014183       2.11364412       9.58587360
H        4.88821030       0.34053719       4.16875696
H        5.94912148       0.31187809       6.43927002
H        6.70823050       4.76687765       0.67806441
H        3.80167294       8.79391384       3.83157682
H        9.34543133       2.16346288       4.07054710
H        3.98749137       8.86596012       7.26884174
H        1.84693956       7.02859259       6.48020124
H        2.22757840       2.25352907       2.20075893
H        2.50030446       7.73009491       4.39833403
H        7.23625994       0.18395419       5.47565413
H        9.49085331       0.95022178       0.15052252
H        3.42603374       0.42254984       5.28449440
H        8.53265190       5.53327179       4.48200989
H        1.26459324       5.11073589       5.99283695
H        5.44899321       3.72046113       5.65915489
H        0.66472596       4.73749399       0.52648938
H        1.89893937       5.56098890       7.57080317
H        5.42369747       7.19704390       6.35345316
H        8.93548298       2.48537397       3.12829018
H        7.42372465       1.03044736       3.30983210
H        8.50011539       6.91144371       8.88225842
H        3.02705145       6.06392813       3.84519005
H        7.09929752       0.49721813       2.28378725
H        4.82704306       9.57840919       2.96525931
H        7.31060934       2.91654062       1.77570379
H        1.70740569       1.17555141       2.44179535
H        0.12568903       6.44927979       2.42593503
H        6.50508595       9.14801693       0.15873216
H        7.24096203       5.20071316       6.36038113
H        8.95957661       0.51631796       1.76128018
H        3.38945007      -0.01889141       0.54308856
H        2.15258646       1.77772391       8.21992207
H        7.42797613       8.34428310       5.98606396
H        2.07064795       2.85257745       1.09100354
H        0.73415947       1.06000054       6.06426668
H        6.35776377       1.25071156       4.49347305
H        1.64026010       6.13669443       1.19475853
H        6.69286966       7.35256815       8.99362755
H        2.03142452       0.22372591       6.90687275
H        1.94383931       1.09139502       0.77225131
H        7.91116953       7.38101435       0.19764610
H        2.65958738       3.91970325       6.04335260
H        3.18796468       1.59887981       5.30935574
H        4.84618235       8.69162941       4.17039013
H        8.57848263       1.73046863       2.41879153
H        9.43146992       6.76353073       4.61433744
H        1.19197798       0.58772963       4.86945677
H        5.68562365       6.71912909       0.66139662
H        3.10925388       3.69463825       1.56907117
H        8.50159168       5.79029083       2.65283227
H        5.27767372       5.37282038       4.48859692
H        4.87478352       3.59320736       4.73458862
H        1.15220702       0.40609765       2.16134048
H        0.99739516       8.92056084       8.58561611
H        8.41463947       9.08127022       6.23626423
H        7.58159971       6.73079443       5.63352823
H        8.24366093       0.61437368       5.46914625
H        1.65940070       1.62515056       7.04288244
H        8.53019238       2.53341150       8.49720001
H        7.40737963       3.25654602       9.34741116
H        0.64053661       1.02403605       2.96418309
H        1.78329957       4.75786018       5.17351913
H        0.19157557       4.99684715       6.82975149
H        2.99078536       5.42347145       7.76995802
H        1.17674208       0.25026995       3.81461716
H        3.17804337       1.21456254       7.03658915
H        6.14418221       8.80327606       6.39902496
H        6.64898157       7.39850140       1.19682837
H        3.32441759       8.24829483       7.75831461
H        4.55801058       7.42518568       5.28564978
H        2.05849814       3.73816895       2.75196838
H        4.36977386       4.79597569       6.67245102
H        6.69918776       2.07702947       2.75670815
H        5.52646160       5.46070576       2.94797134
H        4.88001966       0.87359655       5.68441772
H        6.08574009       7.07401896       7.80461550
H        0.60688800       5.84141588       4.91008234
H        3.18684793       4.97020769       1.65921712
H        6.26033831       8.60372829       3.17070079
H        4.07216358       6.49466372       0.57102287
H        2.07580447       5.89977646       4.62385225
H        2.03299069       0.74180567       5.43332911
H        2.67232656       0.38227868       3.62167192
H        1.00155163       3.47270560       1.43927705
H        5.82921410       3.03081679       1.95370185
H        7.85554934       1.75950909       7.58808756
H        6.63892126       6.27948093       8.65346718
H        2.47679210       8.60170555       6.52952099
H        1.30164659       2.23359466       5.29934692
H        4.35708570       9.54326534       9.72068024
H        0.58158940       9.02462292       2.45603061
H        2.87620425       1.83026755       9.05012798
H        7.33918047       0.36276442       4.08812428
H        0.12956449      -0.00205774       5.29909277
H        8.31226826       0.49209020       4.23084354
H        5.00654078       4.04426670       9.12365913
H        8.74006081       0.10914221       0.49271253
H        6.07082653      -0.03314551       8.25060940
H        5.33344841       1.31583452       1.45598209
H        6.15022135       8.30498409       8.51761818
H        1.87495267       2.70980668       3.14360833
H        3.84346151       3.20644259       3.79536605
H        8.36353493       1.42594934       1.22302914
H        7.46216488       4.08351946       7.11696577
H        1.47726870       6.73722887       3.27186704
H        5.20276403       8.32571220       6.38606501
H        2.51011109       6.55506849       7.95715857
H        8.78539562       6.05612898       5.59981632
H        7.57899332       1.22141182       4.81465816
H        3.37460899       8.78065777       5.51604795
H       -0.00759269       5.29995728       9.02824593
H        4.94184685       5.71544218       0.92058516
H        4.10512543       6.18385267       7.88421106
H        3.05329156       5.28430462       4.60855722
H        1.86620510       7.51471138       2.51851892
H        0.08055418       6.92832518       7.33239412
H        2.70959044       7.99288082       8.63461018
H        7.69730568       4.30459023       4.87045193
H        2.93196392       7.88245821       3.07423711
H        7.38133764       8.89242935       8.11724854
H        3.13814116       3.34563565       5.41400528
H        5.51659346       2.77088547       8.29008198
H        6.16183805       0.16443987       4.22349548
H        5.07627773       6.97063065       7.52076340
H        0.71579391       4.68083048       4.66515446
H        7.10847092       1.86694944       8.87917042
H        2.91679549       9.11046410       8.51670265
H        9.03956413       2.00479722       0.12862539
H        5.46705770       1.61867714       6.21711731
H        7.12920713       8.73658180       5.01608753
H        3.46443796       9.46604156       6.65940666
H        5.10416698       2.12350202       5.09163618
H        8.71914387       8.93903255       5.06938267
H        2.97641516       2.35367823       3.60031462
H        2.59500122       9.17109203       2.05332685
H        5.87571812       4.84557772       6.82109594
H        0.87002230       1.68608069       3.81493759
H        6.28886938       4.79299164       2.52227426
H        3.92895079       7.54836988       4.06367493
H        5.71663427       2.85373187       6.09549809
H        2.45855069       6.05596304       6.68785906
H        1.26034045       5.34485960       2.91608334
H        7.60616159       7.20364618       3.13056397
H        2.77592158       2.72037315      -0.03625007
H        5.80744696       4.00177240       4.48634434
H        0.23278774       5.03061152       2.44915080
H        4.97279072       3.11191010       6.89490938
H        6.40405083       1.18981588       1.85180318
H        5.60096836       8.71318054       5.33022594
H        4.40928984       8.80302429       1.00305200
H        3.84524369       3.33350992       7.65358114
H        7.12149382       3.71123409       5.47411966
H        7.43601513       1.50794244       0.59630227
H        1.87138593       0.53154933       7.98314714
H        6.01368237       1.47046149       8.26871777
H       -0.38474551       6.83133364       0.67774439
H        8.22507191       0.68004751       7.66724586
H        4.28294849       1.14177620       0.62694812
H        7.09129286       6.17244959       3.66371465
256
Properties=species:S:1:pos:R:3 pbc="F F F"
H        1.20833516       4.91176224       3.11630011
H        8.66119385       3.37925410       4.89591932
H        2.14572692       7.67721128       4.60150957
H        8.19022179       4.46302795       4.28325653
H        7.66993380       5.35723305       4.30591726
H        4.71601582       0.42156652       3.04728723
H        9.14725590       1.46500373       1.37487185
H        4.00303984       9.29598141       5.94105244
H        8.56999111       7.80899096       0.76048559
H        2.31844282       1.64107585       6.29807091
H        0.60344374       6.63427496       9.82552052
H        5.94955969       5.70390701       4.97147608
H        2.97563529       3.42721343       6.36451674
H        6.47106743       2.12212205       1.26490152
H        9.23896980       4.21160555       3.87568283
H        4.90112591       7.35696745       8.33355236
H        1.62539208       7.18668509       6.81155872
H        7.37532711       7.51718664       1.14073086
H        2.95600009       4.74009037       8.47342968
H        4.85728455       1.07338381       8.47208405
H        4.15876436       8.30315876       8.80519962
H        4.62319803       4.26284981       0.67135793
H        2.75939775       6.94466877       0.06467663
H        1.04199862       5.07440042       0.78846061
H        2.49976826       8.33257484       3.48032904
H        2.39681482       8.54516792       8.42818642
H        8.37842274       5.51088285       0.88576174
H        6.98837137       5.61826992       3.34149742
H        0.21138558       0.97619230       2.11940694
H        9.29006386       8.76278210       5.54259539
H        5.82483292       7.86206579       9.04288197
H        2.12090826       1.23386705       0.53375149
H        6.67257166       4.33569765       2.85414577
H        8.41401291       2.16260958       4.15413904
H        3.30386281       2.32081723       6.17993927
H        3.14092112       3.90778208       7.33543491
H        6.77830315       8.81079960       2.07138419
H        8.39715004       8.77104950       7.40846920
H        1.66970217       0.17841054       3.63335705
H        3.82983375       5.78685760       6.99311161
H        4.20231009       1.23999810       5.86775208
H        7.10084343       7.24308681       0.14311656
H        2.41976476       4.24532557       0.88325572
H        8.48935413       3.10187745       1.27414739
H        8.58685970       3.85401726       5.91661167
H        8.45355225       5.78941727       9.18997765
H        2.14485717       3.22001624       8.49900341
H        1.80025935       7.09171677       3.24359012
H        2.90966725       7.19951582       1.33724403
H        5.57314444       9.97273350       8.94963837
H        2.10599256       4.12971163       6.24011850
H        1.79744029       6.89010572       5.52195978
H        4.87844753       9.73972130       4.04404259
H        8.51994324      -0.05701535       8.00719357
H        9.30401230       3.83696580       8.70750237
H        3.06619382       2.55661416       8.49636364
H        3.28803229       0.36862788       7.94999790
H        0.61907023       6.09849548       8.24526119
H        0.75633180       4.94120789       7.92752361
H        6.59935617       3.46122670       7.42583656
H        1.21099412       6.15071964       2.75387645
H        4.27187967       6.48026371       9.37296677
H        2.73767447       6.91849661       3.67273617
H        3.84596443       6.90852451       4.62846756
H        8.32367420       0.84226406       3.52458835
H        9.05495930       0.99392712       6.97953415
H        5.42016029       8.78536224       5.74530411
H        7.70258713       9.16232300       0.46941459
H        0.35527408       1.99534512       7.63055277
H        8.88994217       8.51207256       4.40064001
H       -0.07146978       9.24652481       6.87375784
H        5.21037436       0.75248414       5.02681446
H       -0.05482154       3.04542732       6.26405191
H        3.31362581       8.02796650       4.46381235
H        5.41153765       0.14262947       6.71312475
H        9.41268253       7.46442747       4.18560505
H        3.96737885       5.43803644       9.79445744
H        5.98922253       2.90404248       5.66767359
H        1.26808405       4.87830877       6.89339924
H        6.84508848       2.37824798       4.52764177
H        5.71856642       8.97395897       2.05118084
H        8.47944069       8.87596321       1.00987792
H        5.48029900       6.18305254       6.04023790
H        4.95586967       5.93868637       0.72338814
H        1.87218559       1.22355950       8.39121532
H        4.54179811       9.43136787       0.52292228
H        9.40418720       6.31051779       3.20713949
H        5.37065554       7.59378529       7.12784672
H        8.68645000       3.67874503       2.43817449
H        0.47952321       4.01924086       2.86546564
H        8.77584267       4.48830652       7.43714285
H        2.53178239       0.15348206       0.12689956
H        7.87682867      -0.52150977       2.70717454
H        4.37244081       2.49627662       3.28186917
H        2.84663820       5.00265265       4.58631325
H        2.94247937       7.41658974       5.52070808
H        3.53551936       2.29563880       5.06879330
H        6.34471703       8.88055038       3.60187197
H        4.59175444      10.22918415       7.39761877
H        6.15050554       4.50855684       0.63976926
H        4.10951281       7.91793919       5.19052839
H        9.21603107       1.20507586       3.15195012
H        4.08037043       7.80997944       7.81021309
H        0.26590893       7.78466177       7.85158396
H       -0.00412409       0.80614442       9.36761665
H        6.45723009       5.23213434       2.30978584
H        4.08750820       3.30221057       5.84063721
H        1.75307691       6.27546263       8.73528957
H        3.38928890      -0.31578603       4.78421164
H        0.44674280       2.47353387       3.10313845
H        9.51562500       4.25993395       4.90584707
H        6.84009886       5.44588995       7.54018831
H        9.52985191       4.88891554       0.93650174
H        5.17146778       4.28276443       6.79416847
H        6.17994976       8.67409897       6.54920197
H        0.15367956       3.18970942       1.89380658
H        6.91234016       0.89408511       0.62854725
H        6.88423347       7.31137514       4.16417074
H        3.43869638       5.48495960       3.58085608
H        7.38889170       0.39417818       1.88385856
H        3.23114681       2.10831714       1.52296257
H        7.76787424       1.89931715       3.25285387
H        0.12931347       3.28285336       0.16942656
H        8.01239967       4.55671406       2.50038958
H        6.60160160       9.73795414       1.31388223
H        8.30783653       4.34328556       9.25454712
H        8.15719604       1.11410379       2.35050845
H        4.47781610       9.17151451       2.17859721
H        1.86616445       3.55337024       4.38254166
H        6.46306181       7.99951506       7.34436512
H        1.18025458       2.94563746       9.05043030
H        8.01717663       1.60323560       5.53980207
H        3.59251833       7.65017796       3.07883906
H        8.32914543       6.50797844       0.53448617
H        3.71740437       4.14891052       8.21181965
H        2.19919634       1.03077412       7.37786484
H        1.47758603       0.78879464       9.37506390
H        7.80439186       7.85436535       7.86356688
H        2.65693235       4.97444057       7.27467489
H        2.11825514       1.62347424       3.30224609
H        5.49036741       8.10392094       4.72920179
H        7.10727549       1.39523041       1.78435671
H        7.76091194       6.31885290       3.64223194
H        9.34555149      -0.02666880       3.32375121
H        6.99388075       8.50303364       0.04281371
H        4.71002674       1.60440469       3.41980338
H        0.01910205       6.36342430       4.87987947
H        7.41792440       2.49587107       1.28992033
H        7.01151991       2.85503531       6.72055292
H        1.60908937       1.92995942      -0.19749430
H        3.42311311       2.27849054       9.80340099
H        8.29241085       0.39696512       5.71882915
H        8.65777016       7.85872984       6.57715273
H        6.18449116       0.05365011       4.45211840
H        1.27764153       0.61447561       6.58815813
H        1.06464565       5.08313751       9.08940315
H        6.46553516       5.70231199       0.01475198
H        0.65571225       1.89927471       1.61369359
H        4.71943569       6.80596876       5.44133186
H        0.64359736       5.87718153       6.63783169
H        2.92315650       3.41008067       4.93315029
H        0.72501892       0.03235835       2.25703883
H        1.25132084       2.10575008       8.19748306
H        5.44711399       7.27531481       5.85614109
H        6.28115559       7.53881454       8.21145535
H        1.29167318       6.56931591       7.65571213
H        3.95189905       7.06680107       6.07889318
H        1.91251314       5.33443308       4.32081509
H        4.05247355       4.31400728       6.02980614
H        6.38198853       8.39624023       4.53952217
H        3.66572046       8.56371689       1.36461151
H        6.57823658       9.25639153       5.57225037
H        5.84989071       5.72663260       6.98689842
H        1.84579349       7.76136017       2.07480812
H        5.97438192       4.47962475       7.87661266
H        7.76542807       8.52484512       4.56388283
H        5.11494160       8.78273201      -0.32923999
H        1.02651072       4.88242388       5.12876272
H        8.87403107       1.22167337       4.59192991
H        3.29159570       8.53629971       5.64876747
H        0.11948848       5.49167633      -0.10558825
H        8.18778706       1.20180523       0.73910719
H        7.58386898       0.30116615       4.41181850
H        6.92651510       6.90834713       6.36637259
H        1.38134992       2.21640396       3.99536490
H        1.92758834       0.76254338       5.62911749
H        7.16238070       1.88969481       0.38812998
H        9.21894932       0.06250723       1.67160761
H        3.98202395      -0.19126281       8.85402012
H        3.56011057       0.72472793       4.91202068
H        5.84476805       1.77124333       4.87782478
H        8.31906700       9.16205883       3.79743481
H        4.54618406       1.85917282       0.26682746
H        6.41066647       8.58900642       8.24533367
H        0.27901921       7.69679594       9.14461231
H        6.55638838       2.05002499       2.87157178
H        1.43246102       7.47318840       9.52106476
H        2.37063193       3.99495292       2.24862742
H        2.60005307       1.86464620       4.55152321
H        0.72659105       8.33837032       2.85717416
H        6.47342682       4.02463531       9.21588707
H        1.02866650       4.30373240       4.04263496
H        4.36124992       6.72855186       7.25424719
H        3.37591028       4.91896629       6.38310432
H        3.23501253       6.14896345       5.90794468
H        6.15034914       3.99647188       6.67748308
H        3.41620159       8.85261917       7.87991095
H        0.30180842       2.25512075       9.23444557
H        5.03075361       2.95947599       8.45431423
H        3.43196464       6.43154621       8.68888187
H        4.21269655       4.43956995       7.08728600
H        1.39103270       8.52778912       3.64332891
H        8.98715401       5.58989382       7.11356974
H        1.88902187       5.51731110       1.49448156
H        8.78100586       5.09946585       5.63199234
H        2.91703868       6.95100594       2.49554992
H        7.13617659       8.94572353       6.91298819
H        2.67544937       4.20331097       3.42909741
H        8.59521580       0.29676309       0.08272649
H        6.60055590       0.86268598       3.71165800
H        4.74278355       5.50616980       5.23025846
H        3.01903296       4.14934206       5.58029461
H        6.83032608       0.49686643       8.48551464
H        5.11083126       8.69877625       7.53977537
H        8.58538723       2.00953007       9.62569046
H        4.93470192       5.25443697       7.08043242
H        0.71529204       8.32280540       4.67103291
H        2.32346725       2.63759971       7.49564695
H        5.84787273       0.56783527       2.49400234
H        6.86939955       0.60824269       5.96475697
H        3.63112450       0.82759202       0.02581089
H        3.31793880       9.06397820       3.05972886
H        5.42762709       5.18223286       5.92243862
H        2.08397031       9.07698441       4.82831669
H        5.86858320       1.87797630       3.71820521
H        6.59621191       4.49445581       3.89693737
H        5.65827894       3.19474196       4.23386002
H        1.90603817       6.11766195       6.83754158
H        0.35833848       5.98201799       1.44718218
H        0.99434501       6.46190262       3.70081401
H        7.98396969       2.34874296       8.60449314
H        5.25245333       7.67733431       1.45926654
H        2.31281066       5.18097496       2.57933378
H        8.85418510       1.82690299       8.29407597
H        6.41370678       1.99366093       8.37907028
H        4.38933706       8.20553493       6.74754095
H        4.58409691       8.31652069       0.59915310
H        7.37238073       3.39194584       8.52436447
H        7.11508989       4.59598446       8.58017826
H        7.15307522       3.50543237       2.42049694
H        3.74008584       7.41114426       0.19040532
H        7.88608360       0.93748116       8.39144993
H        1.06951761       4.93406200       1.82601607
H        1.32482481       8.76413631       6.89229965
H        3.26179266       2.47424555       2.62514210
H        8.70093346       5.69640684       4.48832178
256
Properties=species:S:1:pos:R:3 pbc="F F F"
H        8.92031574       7.20271730       4.88282442
H        7.77821159       3.53917670       2.30216789
H        2.61128592       7.07643700       4.36302996
H        8.95467281       3.58937120       6.28511286
H        6.71464491       6.53848648       5.66045856
H        9.60836506       7.96176720       3.07379293
H        0.49769658       0.73627448       0.47667655
H        5.79124212       7.03926849       6.31744003
H        0.36337984       6.91863108       2.58837819
H        2.60333180       0.88558364       0.41609871
H        8.79936028       6.71962547       3.03392553
H        4.83037901       8.95320129       2.95575643
H        1.52142358       4.72646379       4.08516359
H        7.25493813       2.61983776       8.94268513
H        8.49378967       2.17204523       1.04721010
H        6.53152514       4.63565493       8.99469948
H        0.26366594       8.73533440       9.23472214
H        5.27806377       7.65080976       7.79875946
H        2.93437123       4.93886328       7.70806694
H        2.80067229       2.76697731       0.26181692
H        6.57985067       7.59816170       0.05689089
H        1.80422103       1.89923334       0.97203898
H        3.29822230       6.11061144       0.62260336
H        3.16905570       5.94668293       2.36551547
H        5.78679228       0.97892147       4.41871929
H        0.69106460       7.54317188       9.26898193
H        7.94177055       5.38683939       1.51523936
H        5.85564566       6.01193094       5.37641096
H        8.94789314       1.69023216       3.53332973
H        9.12963676       9.01893520       5.43485403
H        7.38393593       7.26041126       6.55914783
H        1.40733039       2.96631312       0.69932348
H        5.89845467       5.38754892       3.95652318
H        7.43694353       0.05755864       3.29985166
H        4.51144123       0.57940453       6.63873434
H        0.24085528       5.16244268       6.60660696
H        6.55917406       6.00505686       4.67432451
H        1.61666679       5.16118670       6.43254042
H        2.77111435       1.51151943       1.61614811
H        4.69725513       5.05579185       8.42176247
H        4.94195557       1.82351279       5.43588114
H        5.67751694       5.63071203       0.36411947
H        0.29320690       4.83627081       1.75248992
H        0.90056902       2.49761367       1.52457690
H        5.42040586       2.65337467       5.88273239
H        8.69080067       7.36046410       8.36474991
H        1.99974871       4.49609137       8.02363300
H        3.00140023       7.53182793       1.76652098
H        2.22638988       5.70916224       2.76456881
H        3.99425888       2.99380350       0.08483500
H        0.33229953       3.33633113       5.49404573
H        5.30913115       7.18080759       5.24925804
H        3.80840588       7.78395700       4.23352051
H        3.50562286       9.24880791       1.27288425
H        2.18348002       2.04123616       5.51216269
H        2.09737587       3.04813147       7.64429903
H        0.33159393       1.56301105      -0.10401648
H        0.27636367       6.43773890       0.25445026
H        2.02913165       4.31591082       1.33618259
H        8.74667931       8.53320885       2.54894161
H        3.86200213       3.73494911       3.28296423
H        4.10593700       3.73266172       1.46297336
H        6.35199213       3.62870765       2.66290307
H        2.21867990       6.66493416       3.36354709
H        8.87452698       8.07073116       4.49159575
H        7.94406796       0.85479242       8.05793476
H        5.76387787       9.46980858       5.41753626
H        6.64093781       8.66441250       9.06617737
H        9.09549236       0.65288293       5.19832087
H        1.31737161       6.00740194       3.41256762
H        9.37322998       0.94055450       8.66297913
H        3.19596219       0.64910847       6.66745663
H        0.34530556       2.72340608       6.33002424
H        4.44915676       5.63441181       5.19480848
H        7.75623655       6.83593225       5.58634472
H        0.84647256       6.66521883       7.74891949
H        6.73579407       5.47953701       5.76093435
H        8.54006672       1.72377813       6.05410480
H        3.53648448       4.60393000       6.44745874
H        5.92766142       0.91926360       6.10379839
H        5.77238846       1.19652486       1.87006259
H        1.75763595       8.31747150       3.31737924
H        2.07739687       9.05862904       4.03593731
H        5.89272118       8.34546375       1.55962145
H        1.00440526       4.21270847       7.54892159
H        3.84189868       1.32398617       7.10359430
H        1.23434687       6.00830793       1.48332262
H        6.94121027       5.75412607       1.22063875
H        7.08380985       3.13823628       6.18920946
H        0.40552604       4.56006908       3.58443141
H        0.22622667       4.72226286       9.05832863
H        1.57296515       0.36413473       0.84646636
H        0.06207453       9.23661423       3.08641148
H        1.73467958      -0.40192339       7.69677114
H        2.26983881       2.24721909       4.59339476
H        3.60475111       7.10838938       7.72535658
H        1.08347106       3.10770464       3.39906192
H        4.11073923       7.44359684       3.14721155
H        0.91313797       3.62822127       4.51050615
H        8.09420681       1.24679482       3.97814298
H        3.78981161       7.53830290       6.46667528
H        0.87452102       1.55854511       1.93942344
H        4.72683048       8.83010578       5.47009277
H        7.08362913      10.04375648       0.87752610
H        0.62783670       7.51232386       1.67992175
H        9.28345966       6.25239706       1.85852981
H        8.80439377       3.30924153       3.30987287
H        2.89332962       6.58341885       8.33872318
H        3.68787718       2.09797692       4.61738300
H        1.78055632       3.49690413       2.02594638
H        9.13930798       3.56125760       4.27299690
H        8.22474480       6.10315371       7.17783976
H        8.81846619       7.12896442       9.49937248
H        3.26459670       3.47700119       5.22039509
H        5.23650503       9.09983826       6.58444786
H        3.47350574       6.88153410       5.17303276
H        5.32970762       1.09695208       7.93922806
H        9.06646538       5.66125536       5.84865952
H        4.50803328       4.98188734       3.78416705
H        6.69777584       8.87557793       2.05766296
H        0.35002878       8.87341785       1.74291885
H        8.34769344       0.67888898      -0.35131979
H        9.49310207       3.82428217       2.59965181
H        6.66428137       6.15504074       3.71916747
H        6.87775850       0.94930404       9.32086277
H        6.34478140       1.56175244       0.83585596
H        7.91699648       0.26749808       2.28413820
H        5.05471516       0.15473916       8.72767162
H        8.62902546       5.12320995       3.71379375
H        6.62455988       9.07371426       6.22811079
H        1.08263505       3.01202035       7.80654240
H        3.62055898       0.14828640       5.65187025
H        4.11826992       0.95345408       1.91127384
H        8.06888103       9.20556641       0.81267136
H        6.02897882       3.54730415       0.92267770
H        0.93237066       3.40514874       9.16297245
H        2.08214784       8.77083492       1.80008018
H        6.60775900       8.70300293       7.77018261
H        2.99671721       8.44027805       7.20690775
H        5.76464081       7.98600340       3.56621170
H        4.58206511       0.67939579       3.63167930
H        7.95861673       1.77559757       9.02828979
H        7.75669336       4.93619728       3.01392603
H        9.27144146       9.42854023       0.62735832
H        6.51515150       7.80242968       7.31803465
H        2.95293617       2.68518472       3.48059535
H        8.44657421       4.43888092       5.03258371
H        9.31039810       2.34004974       7.55129910
H        8.15298367       2.60950899       3.84315133
H        1.91963220       4.56674147      -0.00862877
H        9.13509274       4.99940491       0.29912782
H        0.98961967       2.41296315       4.35177803
H        0.41647363       5.94990349       8.67215157
H        6.87460375       8.14249229       5.52501917
H        1.65749025       2.32071733       8.70691490
H        2.73623157       5.44412041       1.69762659
H        7.53208208       4.79268074       6.98788500
H        1.95436502       2.75562310       2.80709529
H        3.25313330       6.35780239       3.30240941
H        2.67438793       5.73007822       9.04701805
H        5.79705429       5.01808262       1.29388249
H        1.75231779       0.80866206       1.81946743
H        0.38081765       4.04657269       6.46557474
H        3.43221855       5.86837244       6.76071978
H        7.56131792       5.77717018       5.09190083
H        1.33912981       4.85136271       2.03461528
H        3.62820554       9.31841183       9.50726795
H        1.87698519       6.58870363       7.32509804
H        3.40466714       2.64418840       5.96761703
H        0.78436983       8.24376678       4.47650242
H        5.05013990       9.57773876       1.10175169
H        8.73698139       7.96513224       7.18590832
H        4.83214617       4.92831898       5.93647146
H        1.26844358       8.74870014       0.71642184
H        5.89943790       5.30817080       7.82691956
H        8.91034222       6.75045586       6.10507059
H        3.00992465       8.45252800       5.52800417
H        5.39781141       4.42662954       5.16871214
H        7.70906639       8.55088043       1.91356695
H        5.20984268       7.82526016       6.51962662
H        0.30571267       3.94042230       8.47278595
H        7.57356071       1.56965542       0.64308995
H        7.64812231       7.48188162       4.41831875
H        9.30088806       6.78008080       7.17180347
H        8.68928623       4.58744526       2.70110536
H        0.11326440       0.14683804       8.01449585
H        6.03965139       0.52373916       0.83192813
H        8.48754120       0.64332342       0.90172863
H        2.02175021       3.55317998       9.16275501
H        2.23333979       1.08250713       4.09160948
H        4.22500277       2.87776947       4.01614094
H        6.78611088       7.48081732       1.10530424
H        3.28498745       3.41951752       7.86455441
H        7.73579693       8.76203632       5.24209356
H        8.18838215       8.70778084       9.23470497
H        5.16423607       3.36592460       9.28990841
H        3.84491062       7.04352617       2.27006006
H        3.16633439       4.01730537       0.25587279
H        3.45823121       2.42834210       1.38714063
H        2.56281710       9.87861061       1.48738539
H        4.07498169       4.54827166       7.53857279
H        0.76658297       4.59671879       5.55397606
H        6.97098351       5.87407970       8.30494595
H        5.27888870       6.07582617       6.37020111
H        2.40425730       5.74708509       7.41149759
H        7.62491751       0.84580457       6.93769264
H        0.80979723       5.47036409       7.46493196
H        1.28848279       3.93599391       0.86719149
H        4.73252106       3.08830070       7.05362892
H        5.97998381       5.75333643       8.79517746
H        4.38584805       4.58235788       0.59835613
H        1.48393190       7.42644501       4.17930984
H        3.34343553       5.66766119       5.36297703
H        3.60131311       4.64827442       1.92054462
H        9.26778698       9.20238304       7.23910284
H        4.76651525       4.32060242       1.98116934
H        0.24708235       7.19540882       8.36988831
H        2.51819491       2.62918091       1.83835340
H        7.38289595       0.03433451       9.17533398
H        5.52287769       8.68755341       4.31593704
H        4.23267651       6.66010761       4.00576830
H        2.66058517       4.06495571       5.90785885
H        5.58687735       2.75427365       8.07888889
H        4.67779493       1.75614250       6.47109890
H        8.48467541       2.93983984       9.65598869
H        4.29794836       3.90416956       5.88157606
H        3.04957366      -0.13894123       4.73575592
H        3.21087003       1.15078461       5.30781412
H        8.42130280       2.12221646       2.25832486
H        4.94933844       1.90512359       4.23521137
H        3.86829829       3.79613709       8.80401611
H        6.87837648       9.32386303       4.08651257
H        5.15514517       7.65289402       4.26010036
H        7.31876326       0.31224605       5.09261084
H        4.31142855       1.23833549       4.61384583
H        4.63668823       3.14084816       5.23947048
H        4.31820393       2.83413815       2.86798143
H        4.97887325       6.46852255       7.66171169
H        7.46979952       8.44057178       0.46947196
H        0.54139131       5.91229248       2.80534840
H        6.73652363       0.55300480       7.56008720
H        6.57207918       8.70085335       0.74403673
H        5.16372490       6.65617323       3.24217200
H        1.89875710       6.81089783       8.43820763
H        7.68161011       3.87881708       6.58602810
H        4.97559452       0.61473370       5.56136465
H        4.02264500       9.37884903       7.88778162
H        9.66999054       4.16724539       0.79379350
H        7.42463684       7.15539408       7.71731138
H        7.32295036       4.08841324       3.77575397
H        8.26566982       6.45251083       2.29440737
H        8.25891495       2.47159076       6.74631214
H        1.70968592       4.02116966       3.17854190
H        1.40653431       9.43212891       9.23027611
H        3.83127618       1.66411781       0.14713800
H        6.29241180       3.94126320       4.49803495
256
Properties=species:S:1:pos:R:3 pbc="F F F"
H        9.60024834       7.74592686       3.20685315
H        6.90730476       2.57741547       0.32988176
H        1.48874581       4.76075315       6.03736448
H        8.19671917       4.44672441       2.96711302
H        7.80489635       5.37142181       6.87347841
H        0.79543984       9.65406227       1.71705794
H        1.13205731       4.35587406       3.45506072
H        6.19746161       4.17008400       5.34538221
H        0.56042629       7.65608263       1.54458249
H        1.88721919       1.53730202       7.49424744
H        9.06317711       6.51031303       3.10356426
H        5.03816414       8.51617050       4.11201906
H        2.55156446       4.32430410       4.36357594
H        6.67716503       6.01547098       8.07456875
H        5.04004049       5.41043186       1.72442269
H        8.65208721       4.77931976       1.14436066
H        1.10611308       2.28727031       9.54339886
H        5.25026608       9.12890530       6.35865784
H        3.00627542       4.40689087       7.11592579
H        2.18067217       0.09945542       0.86814725
H        8.83932304       6.34229136       5.74282789
H        3.26940322       1.75141418       1.42680216
H        4.46556044       8.82294178       0.52544260
H        3.34202075       6.95330763       3.69887853
H        6.42736816       1.36508620       2.95471954
H        3.15578938       5.85108137       9.43979740
H        3.38701797       7.01959324       2.15161276
H        7.08514166       4.19167376       4.52785635
H        9.68917561       1.39686155       2.92672563
H        1.15623200       8.03105640       3.43114066
H        6.44770098       7.38209867       7.04609966
H        2.46652055       2.67804408       0.43307734
H        7.52869463       6.71457481       1.67919111
H        9.02595615       8.16437054       1.55850458
H        4.98747063       2.54626679       8.26741409
H        0.34872425       4.82411861       4.97936392
H        6.23462772       4.94891071       6.36038160
H        2.42933488       4.17259550       5.96363068
H        2.05072379       0.00937656       8.94770622
H        6.34763336       5.17984581       8.75233269
H        3.43800163       1.16009045       4.59542656
H        4.68103504       7.56213713       7.84235764
H        8.49595547       3.48596644       2.07115006
H       -0.05793985       5.75446129       2.51886606
H        4.53245163       1.66316223       5.95074606
H        7.01726866       6.99648762       6.13551998
H       -0.00044647       2.70703840      -0.14393611
H        3.17887115       1.66304886       2.88953638
H        2.85548568       4.49327469       1.79284573
H        4.85744810       3.31506848       7.34524536
H        7.65304613       6.60088778       3.84535980
H        7.82799244       8.87882900       5.06119871
H        2.98908281       7.11340475       5.93432760
H        4.29770374       0.94587839       0.28545243
H        3.64241743       2.91152835       7.31931639
H        3.10520935       3.70004272       0.31691259
H        0.66305089       5.00471354       9.74195099
H        9.36703110       6.44003820       9.02706528
H        4.06222916       4.12768459       3.34610009
H        7.67476273       7.04151726       0.40681618
H        4.94314432       6.00251198       4.92084837
H        6.79443359       0.31938127      -0.26630795
H        6.60507536      -0.44620574       2.13808775
H        3.56435966       7.46187544       4.90835047
H        5.85442781       0.97898459       5.45192814
H        8.12198925       7.94816685       9.00872612
H        5.44626379       7.38222551       3.46988630
H        5.42726851       7.95591354       2.60841894
H        8.57698536       0.84854215       2.62099814
H        0.74234074       8.33492851       4.57270432
H        9.55070782       3.74476933       1.12195969
H        3.73898602       1.46787918       6.81488514
H        2.91898227       0.97396713       6.11376047
H        4.67249489       6.61568880       6.99156475
H        8.97189331       5.47080612       6.43134689
H        4.26867247       8.24379158       7.17419291
H        6.63876152       3.27319694       5.92949820
H        7.31909895       1.23263526       6.13285828
H        1.67644370       3.31077671       7.83969355
H        4.78077316       2.39204025       6.61939907
H        7.34132385       8.84057045       0.32433262
H        4.82837582       9.38858604       3.66669250
H        1.26482224       8.48445988       1.43159378
H        5.10400867       5.69238377       3.09814429
H        0.20617713       1.02094829       4.35369682
H        3.30771470       3.51126838       3.94258308
H        1.53414011       5.74201870       1.90145826
H        4.57882452       7.57960796       0.75391656
H        4.83769989       1.24621332       7.21947336
H        0.95142752       5.10916519       2.77735209
H        8.35498619       6.10797834       0.79362929
H        1.32153976       9.17376804       2.82938337
H        9.22043419       7.16821957       2.05894613
H        3.60325170       7.74906445       0.85734338
H        2.05497885       2.36128020       2.64211249
H        4.83000612       5.04919004       8.36328506
H        2.96245766       4.40526962       3.02878022
H        5.13842058       0.83345062       3.97746801
H        0.06841242       3.97603202       3.64233994
H        8.72734451       9.10323811       2.76115918
H        5.73865557       5.65301704       6.90774918
H        7.63873529       1.60048091       3.41382480
H        6.20153189       8.08373642       1.44039345
H        5.23721075       3.88147187       8.43073654
H        2.00642252       6.10621834       2.88895917
H        8.49181080       7.22417784       1.33643830
H        8.68521309       3.33718801       3.14927387
H        4.19213104       9.28891373       6.88281107
H        1.35827851       0.33868861       5.95264149
H        1.93877470       1.42968643       2.14019346
H        8.69579029       6.27565193       1.79507649
H        9.57501888       4.51002550       6.11116362
H        2.06898308       6.95328569       1.95788431
H        4.84765577       4.73766232       3.02941537
H        4.35745668       2.01990223       9.21287537
H        8.88147640       8.13178635       5.86450243
H        5.49186611       2.36019588       7.41064548
H        0.71035290       5.96720695       4.91336155
H        7.99573660       5.77846479       2.69327402
H        6.08445454      -0.02562369       1.08746922
H        9.06769276       0.18752089       9.24395180
H        6.77329922       0.17051606       7.73910093
H        9.34073257       4.67799902       2.84823322
H        3.67890096       5.18314600       2.42432928
H        5.23615599       1.43184853       9.01473999
H        6.10898304       1.80385983       1.03507936
H        9.13773918       0.06436466       1.87412500
H        3.47807550       8.78576660       8.04670715
H        8.24791527       8.13380146       4.09086275
H        5.64706230       9.16999054       7.83570004
H        0.92755353       1.95042431       2.09188986
H        4.58423710       8.01722813       5.74775267
H        2.96488070       3.92237949       8.53582001
H        0.21445447       2.13709664       1.03487563
H        6.82152224       2.96885753       1.42554057
H        7.09019995       1.85979748       8.49649143
H        3.99312973       7.32074213       6.35086250
H        2.79243660       8.28619099       8.63513279
H        3.77503562       7.71730423       9.09810734
H        8.36670780       8.07627964       2.90316463
H        6.68003511       2.06245017       4.64506817
H        5.46300650       3.02923250       0.36932087
H        7.47317219       5.61094618       1.60614204
H        8.65759373       7.92980433       8.17753983
H        6.78636074       8.70749378       5.82451057
H        3.83395791       2.96903753       1.09621692
H        7.73490763       2.43079281       5.87823868
H        0.40738752       2.92984939       7.14546776
H        9.24288750       1.21481967       1.74355161
H        0.07429800       6.74067211       0.87036353
H        8.27022457       5.13229036       8.45124149
H        0.79418314      -0.41438594       5.21460104
H        8.68748665       6.43593645       7.86509514
H        9.21927643      -0.24049433       5.16929770
H        1.24382532       2.96089363       1.51771724
H        2.58501482       5.34140730       0.69734842
H        9.41424084       4.56818342       8.30781269
H        8.94251156       2.05247617       5.62036371
H        1.51261973       5.29147863       4.72733259
H        2.01155686       3.38893247       9.10778713
H        7.92156124       3.00430226       0.85949028
H        2.47175026       7.16989374       4.87532139
H        9.13559151       5.02878857       4.06690216
H        0.87459052       3.68880987       9.38820171
H        8.54365540       4.89180899       4.87410927
H        1.91105700       4.02145243       1.77023172
H        3.17331457       8.25541496       7.34002972
H        2.78614521       5.99892712       8.11526012
H        2.72447515       3.00632882       5.84004879
H        9.19607639       8.46484947       4.32195377
H        5.45344639       0.55421686      -0.01402992
H        6.57676935       7.42839527       2.24426508
H        4.93847704       3.86452270       4.60916948
H        7.38651037       8.04082489       1.77881372
H        0.11870486       4.22178268       7.29364824
H        1.36255372       6.64358282       1.31086373
H        2.40733576       7.59608984       7.20833254
H        5.38353062       4.92409801       5.16459846
H        7.95956182       8.85858154       1.49461520
H        4.20903635       0.20992675       7.76387024
H        0.62683755       2.57472920       8.32473469
H        8.95288849       4.56744051      -0.23302691
H        9.35187054       6.94216681       4.19771528
H        8.80753708       3.65633488       8.50062275
H        6.58594799       5.14691734       2.37864256
H        2.09854245       0.00106901       7.64786863
H        6.47074080       2.11313558       1.86443186
H        8.77974224       2.00942206       0.45848501
H        2.01695132       6.15127087       0.63849968
H        2.87183356       1.28919470       7.67952442
H        2.96853542       2.62641239       3.10148883
H        5.49277067       6.91500950       6.47120953
H        4.53804731       4.22205210       0.73326117
H        1.16473222       7.84513235       2.24876881
H        8.65435028       7.47443485       9.70671082
H        4.81054401       2.78340816       1.89554632
H        4.55370188       8.88219166       2.81601834
H        4.55148411       5.36886835       0.38269517
H        4.55786705       2.05280519       2.57837844
H        3.60764480       0.39657646       5.27387524
H        7.47399521       5.77914476       8.64558506
H        0.42800382       2.67411637       4.17590141
H        9.14634609       7.50262499       7.12947178
H        6.15835238       5.95535326       5.76941299
H        0.87235194       4.97516727       7.77163839
H        8.28704548       9.37619305       6.38871861
H        4.52375555       1.74769819       8.08005714
H        2.00375867       3.73555923       0.53867078
H        4.73719358       3.37341046       5.51538706
H        9.29449940       5.48181868       7.50011492
H        4.56359100       4.06600332       2.02515650
H        0.45297518       3.75357223       4.81191587
H        4.09055424       5.94084835       3.54093099
H        3.15983987       5.17121744       3.68714213
H        1.92323661       6.62857723       6.03614759
H        6.75869703       3.60973430       2.22673297
H        1.10652030       5.82561016      -0.08736091
H        2.03341985      -0.12266830       5.17702103
H        5.99044561       6.38038254       3.22271562
H        6.39370918       7.85181427       3.69668317
H        1.41731083       7.18728971       4.22443008
H        2.86586165       2.01645947       6.06245852
H        3.22970295       2.70147276       9.09460163
H        6.44122219       2.29538441       6.33171606
H        8.16230106       0.30548218       0.39222041
H        4.37975836       5.16973829       5.88425779
H        4.10762978       1.79522264       3.88319373
H        3.65559244       3.37970090       5.78488588
H        0.47464007       0.75614864       1.00805306
H        4.19817114       0.74833816       2.54550147
H        4.26026249       6.55123043       0.25622922
H        8.32463741       0.34178984       4.52976894
H        6.89402723       7.35648918       4.71748829
H       10.06750870       8.68258095       2.14416957
H        4.58239889       9.45439625       4.85294867
H        4.52499342       3.18024635       3.66087794
H        4.95513105       1.54722393       1.09089351
H        3.69191170       4.91714907       9.53395653
H        7.90637779       8.20628452       7.20080566
H        0.54420203       6.59109497       1.95423031
H        6.07554436       2.01421571       8.18560791
H        4.81340027       8.13169956       9.17136765
H        7.59579945       4.49815989       5.75539255
H        4.23698044       6.04466867       2.42123151
H        0.51564628       1.82997465       7.55222893
H        4.53553391       2.92823219       4.60451889
H        3.37333012       0.44629318       7.14740276
H        0.31696415       3.16170311       2.76785040
H        7.86241722       7.46596527       5.27838802
H        5.42463779       3.90189052       2.96531653
H        6.70050573       5.10230017       0.26985309
H        9.26281071       1.32927406       6.40079403
H        3.80179858       4.16260672       4.99562407
H       10.08929348       0.07101835       7.00695705
H        2.23118401       2.26271224       8.97200775
H        4.90183306       6.57022095       3.91163278
256
Properties=species:S:1:pos:R:3 pbc="F F F"
H        9.08617210       7.55444670       2.39838934
H        2.42303610      -0.60975188       2.95776224
H        3.81694841       5.04684544       5.05499411
H        8.38411903       6.34146738       2.39999819
H        8.53447533       2.42147589       7.19735336
H        3.10665751       9.62149715       5.35935688
H        8.62793350       3.68034482       3.22403741
H        8.51484585       4.58014584       3.71008825
H       -0.16353056       6.26876163       1.83230317
H        1.60302269       3.80212545       2.10412359
H       -0.10072692       6.68640471       3.01687098
H        4.43849707       1.97633052       3.72485971
H        3.18469524       4.62988472       3.17750454
H        7.23139477       7.08533525       8.42683697
H        8.02814007       5.40396023       2.27597594
H        7.58789873       7.42036247      -0.04743649
H        9.36101818       1.16508019       1.06227612
H        6.41260338       8.20066452       5.29101038
H        2.72274828       2.30733204       9.22627354
H        0.51737493       8.10457706       1.88490987
H        6.94239664       5.90878391       5.49657774
H        2.18889022       4.06078625       1.31146407
H        0.77754927       9.21104813       1.99878824
H        3.39893031       7.47973013       2.97709560
H        7.00988102       9.45340443       2.98323655
H        2.41227460       4.63109207       8.67660141
H        1.52066934       9.17351437       3.42830825
H        7.37467909       0.51771051       4.68325377
H        1.12179279       0.43294886       2.88598895
H        3.01887465       7.55156231       4.91282654
H        6.21661043       7.58590746       7.83131075
H        4.79739046       0.31339571       2.01512718
H        7.01444387       2.08591175       0.72842592
H        8.08998013       8.19736767       0.96942145
H        7.09451389       0.41648930       1.72339082
H        9.10309696       2.32810569       4.63817167
H        7.26369095       2.07308888       4.80585623
H        3.98426843       6.00512600       5.65787172
H        8.53208065       0.81000608       5.25440884
H        7.70927715       3.31161547       7.42537069
H        3.23921824       2.49346137       2.48476410
H        5.69204617       7.27178764       5.12232161
H        6.65966034       0.37030029       0.42235878
H        8.57280350       6.00633860       1.16699779
H        4.92169619       1.69970679       5.68983030
H        9.44636917       5.35975695       2.32450461
H        7.90543318       1.86599171       1.45806146
H        5.16071081       0.49076763       0.11542410
H        5.08490086       5.06107044       1.77932513
H        4.63783216       5.82714939       7.95493364
H        8.38164806      -0.13779058       4.35104942
H        6.68465996       6.96271086       4.79037714
H        2.74260092       7.80968904       6.47994709
H        4.46048784       8.40273094       7.42249775
H        1.39336681       1.29030955       6.97353363
H        4.42143488       5.61997223       3.84778380
H        1.94088876       5.33485508       1.85837018
H        8.96865845       7.46941185       0.30861053
H        2.37784982       5.30147934       4.95822239
H        6.91721630       6.66860819       1.67073405
H        4.57686281       7.28644514       6.61446571
H        5.81396341       3.20388627       9.09821987
H        7.79640245       8.89952278       0.10261787
H        2.33055639       6.51586771       5.11322355
H        7.08761311       1.19261706       3.84968019
H        6.40338659       6.89484596       6.87887430
H        4.02955580       8.08440399       1.67549098
H        3.21796679       0.23780838       3.16219807
H        2.19293642       1.37480664       1.96924520
H        1.76384115       7.15996027       6.14166117
H        0.72319388       3.42983747       8.73280430
H        1.24152112       0.79517138       9.15877438
H        0.39781645       0.77134538       6.76429558
H        3.46384311       6.73491716       6.46650982
H        1.83961415       4.52629375       5.53314304
H        7.19342995       8.29514313       8.04761600
H        8.23009396       3.34680462       6.34683752
H        4.21812630       2.48628879       7.80259943
H        8.97802067       3.55847788       7.27947617
H        1.58198678       1.82617402       4.25834084
H        6.59508467       8.26344585      -0.06152934
H        2.23290324       7.49523544       3.47501850
H        2.45141339       6.52076769       8.27246761
H        7.68233871       4.70344019       5.20479774
H        4.28157759       1.90773141       2.67706347
H        4.43924189       4.22428370       5.35474777
H        2.79177260       6.10958338       2.00955606
H        3.61135459       0.03625312       0.90563941
H        6.90849972       4.02608204       8.02207661
H        1.34870780       5.02167749       3.26649761
H        8.90109158       4.91628599       0.57543546
H        4.13566303       2.08938837       4.69187832
H        7.97284079      -0.05275731       0.99291217
H        3.06718731       7.25588083       1.92039037
H        3.88815022       2.34806728       0.27012932
H        5.42247057       3.95445943       8.49553967
H        3.76895642       5.75002480       1.80743313
H        7.52310419       0.05978862       6.55693007
H        0.22939943       3.69188523       1.32860112
H        0.66671610       1.91561198       1.58300626
H        7.54658222       6.19429255       6.85406733
H        6.23678970       0.64011770       4.55139780
H        4.80609751       8.06181812       0.87846255
H        4.16156054       5.98995256       7.08589315
H        3.08387399       6.02704287       3.83161950
H        6.92309952       8.79278755       1.04168069
H        8.28249550       2.70958781       3.50236106
H        7.25275135       1.19434237       6.94242668
H        6.36562061       8.74957657       8.05416965
H        3.47777200       8.72190475       2.20499444
H        6.75481462       6.26199913       7.72208977
H        9.50391197       3.55238342       6.19228554
H        3.93434024       5.70149279       8.84001541
H        4.94417524       7.06903839       3.94029379
H        2.46522999       5.31955576       9.80496883
H        7.85559320       6.47403240       5.85168457
H        6.24601316       3.72721004       6.69827318
H        0.71677125       1.19647121       4.47510958
H        7.76956034       8.49461555       3.04485273
H        9.51759148       9.42393112       8.42886639
H        0.22697294       8.29124355       7.73053885
H        6.37646294       1.90527999       8.05719948
H        0.91432422       5.97069454       2.73055172
H        4.58844042       4.33912325       4.21814013
H        3.90997505       6.45456266       7.95816088
H        8.81795120       0.22974630      -0.04399166
H        9.08619976       9.24792767       5.31669664
H        4.23052311       1.55639768       8.48984241
H        6.38035011       9.11898899       4.15630722
H        8.18117809       8.08142090       8.94779015
H        3.27707744       1.46489334       9.51189041
H        5.18014526       5.06109571       6.95505953
H        0.05162006       4.35808372       8.12519169
H        7.80552197       2.91890240      -0.18589048
H        6.72592831       4.15335178       1.80071247
H        5.03097010       8.42978477       8.20476723
H        0.97003192       3.47230506       6.61611557
H        0.64399147       6.77873135       0.63986278
H        2.14661932       5.99424744       1.04103065
H        1.98083973       1.00419855       3.78093982
H        8.30527496       2.33740091       5.30548525
H        5.08871698       2.21973419       9.09794998
H        6.69295406       1.71283674       8.98919106
H        8.18573380       6.60741568       8.59711552
H        7.75696039       1.40304124       7.98700666
H        6.26438522       7.90896559       3.92790198
H        6.06643200       2.49727082       7.05704308
H        2.14838457       2.97150421       8.09291649
H        9.36473846       9.06228733       3.87261963
H        8.95638371       9.26570511       1.20502269
H        7.53340626       2.29225683       8.54204941
H        8.90849400       7.54244280       5.81969929
H        9.63930988       3.63691354       3.92094731
H        1.54401958       7.99675322       6.84291744
H        2.11637211       1.44494677       0.11247023
H        3.41201711       5.82733917       2.81017399
H        0.74197811       2.46746993      10.09312344
H       -0.10867973       3.14983225       8.18939686
H        3.90670943       6.74142265       4.40035486
H        3.15457869       3.89081883       8.91388988
H        7.60108709       3.29595637       0.91521502
H        1.96996820       6.62152147       7.23665953
H       -0.13910477       5.31755352       6.60637856
H        1.43410408       4.84985447       0.84559000
H        0.44862494       4.38849354       5.69726181
H        0.38355136       4.25634384       2.70949721
H        7.18853712       5.86770391       9.15348053
H        3.00202489       5.49347353       8.48131847
H       -0.18840863       2.80951571       3.42223954
H        0.37744078       5.63875294       3.67493105
H        7.09400558      -0.17500927       8.65579224
H        5.79976940       7.99784756       1.47985888
H        7.88865995       3.27522302       4.52285624
H        8.59861565       6.04017019       3.36922836
H        0.07057165       2.08705473       7.14969540
H        1.81665277       6.55994081       2.10899138
H        6.21717262       4.98623800       7.11171913
H        6.84606075       3.17843151       4.85776758
H        7.41927910       7.81697798       4.18199301
H        5.78473473       1.15561283       9.20196533
H        0.75293410       0.64575756       8.22545338
H        1.70874345       7.31990433       0.99466538
H        7.83883572       6.37687635       4.74769926
H        0.44524643       2.20158720       5.42017221
H        7.56985044       6.85014296       3.82697248
H        2.25523663       0.67200059       1.14530575
H        3.27250743       3.88865757       5.31398678
H        1.00559616       0.70610136       1.25745440
H        1.63986516       8.39507198       8.45145321
H        4.31869745       3.83525324       6.34669209
H        1.43480408       2.86380816       4.44732094
H        5.99217558       6.05209970       4.18527603
H        5.81552935       5.60469294      -0.06206466
H        3.35592842       6.48523808       0.81713122
H        9.95711231       7.50829315       8.76584530
H        7.95340204       3.53486967       8.50751305
H        2.96597147       1.13880467       2.57127142
H        6.46044254       4.14421225       0.64922112
H        7.04849958       1.07831740       2.80804682
H        7.20951080       1.90400028       5.97260666
H        9.22010803       6.54835653       9.35982323
H        8.96057510       2.11313844       2.52036691
H        0.35507053       5.99096012       7.51051140
H        7.48116112       2.61028981       6.65249443
H        1.85187519       3.47761154       5.36774921
H        7.21426868       7.83835173       6.94713926
H        2.45163226       9.32768536       7.17791033
H        0.85377139       5.44411516       1.70357037
H        7.35920000       2.55230927       3.89990568
H        8.62422085       4.29093981       6.55626440
H        5.20106173       4.76813269       0.00779422
H        0.92888647       4.35486412       4.48824596
H        6.12989759       5.62197495       3.03886914
H        5.55221510       6.66701365       2.99973249
H        0.23495090       4.16902685       7.01503563
H        6.08074045       4.66478682       4.22006083
H        8.19524765       4.14693260       7.73094702
H        1.98469746       0.50550419       5.63012648
H        6.82785559       0.40993783       7.42874384
H        4.91024256       9.73573399       3.38702440
H        0.91339761       5.59181595       4.68455839
H        1.63638437       9.79213715       4.51253033
H        3.63659239       2.86371493       8.65072250
H        6.38980007       4.49055910       5.53347158
H        8.26735878       8.40627861       7.02694798
H        2.34637690       4.87041092       6.58178663
H        3.48562241       2.55056286       3.49033332
H        2.80130935       4.03574085       7.83046961
H        2.50798106       0.90715212       7.87200022
H        1.16330862       8.44414425       0.58458126
H        2.38484502       0.44668785       8.86469364
H        1.68643725       8.82317638       5.79155016
H        7.07986641       7.72420073       1.44499207
H        0.89355212       8.91838360      -0.31808051
H        3.41609859       4.33702326       6.31183004
H        3.16942191       2.69824505       1.17570353
H        5.04930782       1.26099288       3.41243792
H        3.70810556       4.98451185       0.32301313
H        8.35660458       9.32325459       8.53845310
H        1.93646622       6.04994059       3.16217327
H        4.37802076       0.47004125       8.67911243
H        5.05245590       8.75218487       2.16054463
H        7.34213305       3.66579819       5.94721413
H        6.08920193       5.86690617       2.00067711
H        8.24454498       1.70935965       3.65802455
H        5.11257887       5.53039980       4.76123285
H        2.58103251       1.39271915       6.41315651
H        1.17446828       3.02471256       1.64021766
H        8.84939766       8.45452499       4.59133863
H        7.45377779       2.61293006       2.72551537
H        7.57595301       5.51116562       1.25661290
H        2.33368397       3.60032988       6.55309439
H        4.29385567       7.86492777       4.32282400
H        3.57797480       7.45839167       7.54410744
H        0.00818095       2.02903771       8.39427948
H        3.48499680       8.44776917       5.60998631
256
Properties=species:S:1:pos:R:3 pbc="F F F"
H        7.39097404       7.95920849       0.93522847
H        5.04629517       8.89784050       3.02163649
H        3.20900583       6.55568600       3.64834189
H        0.34617320       5.27231264       4.08732891
H        8.72659302       0.51939911       7.82580328
H        0.93163949       5.04250479       6.54899263
H        7.38642216       2.63828254       2.00695920
H        7.48114872       4.00983906       2.20376778
H        0.29794854       7.59393883       3.89393592
H        1.41589868       1.92899060       0.45621386
H        7.96449518       6.18590975       3.58827376
H        3.88744235       3.96001625       5.54553938
H        2.77830362       5.59072638       3.30863595
H        8.06486130       7.06425428       0.30703509
H        7.01363182       3.56197453       1.34659302
H        8.43343925       6.77021790       8.78869724
H        2.96104693       4.52997208       9.56826305
H        8.92098045       8.72882271       6.18111515
H        3.97302818       7.60736418       7.81952858
H        1.89646041       9.28405762       6.32964087
H        7.97846746       2.72377205       6.55175877
H        2.20557094       2.37772417       8.96944809
H        8.29229450       0.45049053       2.19407582
H        3.24623013       7.61904860       2.48402166
H        2.35448337       6.81508923       5.10244942
H        8.35649490       4.20764923       8.91820526
H        0.56246859       9.56041622       7.25254631
H        7.32846451       0.39481419       2.63064051
H        3.73534656       3.76504898       3.28840518
H        6.02375984       6.29516554       7.89951134
H        5.28108454       9.13613033       8.60254669
H        5.05104542       0.42691839       3.01049232
H        7.46993256       0.95429039       0.38172245
H        7.59689474       6.31377840       1.12732899
H        7.32242107       9.36741066       0.94831145
H        0.06314901       1.19023573       4.37328768
H        6.00163889       0.59895349       5.73115683
H        2.43789721       7.15493011       3.04028511
H        9.79435825       2.40161109       5.29582453
H        5.57225180       2.81141782       8.26968193
H        2.67498565       3.29167819      -0.15056041
H        3.43531108       9.71071529       3.87265682
H        5.84162378       0.74752200       9.53792572
H        7.80075884       5.66765833       7.91868544
H        2.22613788       8.38880825       5.11592245
H        9.19222927       6.19487762       3.61719227
H        6.66680384       0.82397211       1.64960909
H        4.49432611       8.91980648      -0.21071193
H        4.71287441       6.00111294       1.87604380
H        6.25239372       4.02453136       9.29700851
H        8.76003933       1.07382309       3.53512216
H        7.74554777       4.08752489       5.80769539
H        4.82790661       8.38716507       5.22495461
H        4.59903717       1.25617957       6.09809780
H        0.63358754       1.14501143       6.48546076
H        9.10143948       3.02367949       4.85613441
H        1.64055896       3.91504073       3.06194425
H        0.30218813       1.18866694       8.79885006
H        0.03599685       4.18774557       4.71639442
H        7.14310694       7.68933058       2.48632550
H        4.40778828       6.57118130       7.63026857
H        6.24414873       2.90157628       1.56798291
H        7.97209311       4.87840033       0.11801712
H        5.56350994       6.24126768       4.64629602
H        5.92287779       8.23635292       5.23062658
H        6.58991098       7.38390160       6.07988691
H        4.46400928       8.21084309       0.77171981
H        1.96816540       1.12188554       3.09824538
H        5.51792908       3.33701849       0.55714202
H        2.14524412       4.37464619       6.29906845
H        9.37607002       6.82818651       9.31834030
H        1.68578863       9.16857815      -0.11394357
H        0.25878635       8.29869652       6.79044151
H        1.65831959       6.31305504       7.93109274
H        2.48268342       2.99003625       6.30846357
H        6.95960283       8.64368629       6.77360964
H        1.42030311       4.08309555       7.09640360
H        5.91330385       1.84478712       5.49706650
H        8.61766720       4.58493042       5.60599089
H        1.21412289       2.94177008       6.58527613
H        7.44376040       5.76012897       0.11762086
H        3.64431739       8.20116615       3.74229932
H        2.34512544       7.61209440       8.59307480
H        8.51335144       3.33612609       3.69771290
H        6.48995829       9.44585609       3.98025608
H        5.05498314       7.14478159       4.12198973
H        3.93453240       5.76394510       2.61584377
H        3.04410791       9.29942513       0.45193025
H        9.25746918       1.82834911       7.43093204
H        1.11174452       3.82189655       5.63646126
H        0.64355433       5.74253559       1.21664011
H        4.42097855       4.92117453       6.56117964
H       -0.09931837       9.42532444       8.65651703
H        1.84525931       7.72615623       2.20488524
H        6.18300724       1.38423848       0.76979703
H        4.70576525       2.71085000       9.38225842
H        4.71618176       6.33222675       0.78828055
H        5.78262186       8.86533451       7.09214592
H        8.52881145       2.23942804       5.30744028
H        9.28139114       0.18154027       1.82536733
H        6.77848434       6.19821787       6.95086622
H        6.17739916       1.02191925       4.79046869
H        5.29686880       1.52997148       1.78043735
H        5.35865974       7.25418043       0.08505057
H        3.51406741       4.95100784       4.11161852
H        8.06477070       9.04179192       8.54354763
H        6.76492357       2.47318053       0.52389532
H        9.12431908       8.93680286       7.35909033
H        5.03191423       1.95715785       0.78747463
H        4.15092802       0.26415515       5.59804296
H        6.91969156       6.03451729       8.22558594
H        0.62940890       3.53503704       8.45244884
H        5.15500402       7.22820187       8.39554977
H        4.02790880       7.10849380       4.27049112
H        1.71100771       4.43094635       0.35003266
H        7.96027660       6.61203337       5.96862173
H        5.86079073       1.26254022       3.72631907
H        0.54120171       2.23360729       3.26088929
H        8.72062206       7.28902006       1.29877639
H        0.87762547       7.62899971       6.02794409
H        8.61200905       6.36742115       7.75712538
H        4.87069035       0.08137907       6.40878487
H        0.81002837       6.07551718       3.44693661
H        5.18940926       6.09587908       3.21573377
H        3.08732295       9.66944218       1.59215021
H        2.86948752       7.82357693       1.55597782
H        0.19087887       8.38544846       8.33511353
H        4.65578318       8.17782116       6.95324707
H        4.55666494       9.22061253       1.26868129
H        8.26772499       8.80234146       0.77519870
H        4.92455673       0.91998833       8.92624760
H        3.35091329       5.23557711       6.13022423
H        6.63143253       8.04691887       7.86828566
H        7.95553255       3.57320809       0.12215108
H        5.80973196       2.30205917       2.40222621
H        3.71417475       8.22650909       8.96947002
H        0.26263088       4.24088383       7.31546974
H        5.29028845       7.69579029       1.18800128
H        1.61943376       5.80892754       1.52829754
H        2.57853937       6.09636593       9.58078289
H        9.16643524       0.67343724       6.59512663
H        6.91569519       2.87010384       6.33241892
H        9.45296669       0.69068313       0.22880730
H       -0.05499334       5.35031509       0.38085496
H        8.41688156       0.75549108       1.13716364
H        1.35095263       1.76520205       4.49553633
H        6.81952620       4.49199104       6.86683130
H        2.69592690       3.79586744       0.90702021
H        1.27001047       2.88424611       1.83941638
H        1.54554665       9.17954731       4.68225718
H        5.47036409       2.42043734       6.64911461
H        7.81035852       7.99656916       6.02627563
H        7.92218971       3.29719424       2.82906437
H        4.64766216       8.38828945       8.26067066
H        3.56894994       8.06242180       5.89373446
H        3.65419197       6.28333139       1.62579393
H        4.18376446       4.50965214       7.69341373
H        8.96048450       5.05764341       6.43428230
H        6.38632107       6.21471691       3.82424521
H        5.06205606       5.84414244       8.30643654
H        0.96658707       1.75298178       1.80789685
H        0.49005032       7.32787800       2.81589866
H        5.70250988       4.90680885       5.68526411
H        1.90792871       4.56630325       1.93927562
H        0.57610029       5.94480515       5.70177364
H        2.35105729       3.38659692       1.76852298
H        9.26191139       5.21004200       1.66723287
H        2.52875495       3.99574804       8.13077545
H        1.59027505       0.72506744       1.44114852
H        2.12173009       6.36451292       3.62523913
H        6.56184340       9.11501312       8.76120281
H        5.48039722       8.33972931       9.25738430
H        0.71002656       2.51182175       8.06271076
H        1.18102276       0.08650222       2.55293083
H        0.93206036       1.73913491       7.28839350
H        2.75131345       6.21648741       2.20899153
H        5.58878708       5.85093355       6.52651787
H        4.88523436       2.43411589       2.91726065
H        0.83645386       4.94619322       2.88897276
H        6.51573658       1.47777247       9.02000999
H        0.53477418       7.35592127       7.60803175
H        2.36708426       8.19034386       3.37704682
H        5.94880724       3.24283624       4.48468065
H        3.68301201       3.24881530       4.80903196
H        6.14279127       9.06271648       0.33175343
H        2.97491479       1.17578924       2.68008876
H        2.79438090       5.87037992       7.06161165
H        4.77270412       5.03824711       2.61864281
H        2.92472219       8.53664684       8.27079201
H        3.30232644       3.60813189       6.83836412
H        7.27979517       1.10477519       5.49020290
H        4.74909163       5.67924833       5.61290979
H        7.16816521       4.32406569       0.21957394
H        4.33855677       4.51118040       0.53439420
H        3.93891573       7.78848410       1.71448493
H        7.74441957       1.34922266       8.42239285
H        4.00711298       0.48111290       2.74481583
H        6.07716703       4.18247652       0.85020012
H        5.98874140       1.17800009       2.59971333
H        6.31466961       2.27386379       4.00530243
H        9.22243214       6.31711721       1.73346961
H        2.94890809       1.56048036      -0.10244735
H        0.90151799       8.58268452       2.87144685
H        7.70204115       0.53040999       7.22075129
H        4.68114138       2.86040878       4.46827030
H        7.70943356       5.71836090       6.74513960
H        2.97077298       8.34766483       6.99371767
H        1.13657296       5.96971512       2.46125984
H        7.07475710       1.41575599       3.83012819
H        8.91019535       7.26243353       6.45638943
H        5.60729504       5.39373398       0.35574219
H        0.02164740       3.17016244       6.00935888
H        5.33535337       4.50322056       3.60107207
H        8.49215221       4.15762806       2.52317238
H        8.84287262       5.85726213       8.72883129
H        5.45383215       7.98667812       6.17729998
H        7.32572699       3.17232275       3.66786122
H        0.93370837       0.78044468       5.12981129
H        5.64123774       2.26129866       0.01990407
H        3.54226089       2.40222979       0.50172102
H        0.56033641       3.44457722       4.22536182
H        1.31398022       7.95826101       4.82081079
H        3.46116734       1.96530461       6.56376076
H        7.81130934       4.19594049       3.36617470
H        7.65487862       0.32155150       6.13613796
H        1.65278614       6.97292995       8.92437744
H        3.75055528       3.68109012       0.95782834
H        3.36195445       1.44241202       8.29171276
H        2.07194924       2.02364016       7.06809330
H        9.04894447       7.55302525       2.21620440
H        1.53631628       0.63405204       6.78367901
H        0.39642450       0.89562631       7.70197487
H        6.41939592       5.21993399       0.84073502
H        1.00761580       6.46426535       6.99679804
H        3.32355094       7.08583498       9.08419991
H        3.35837603       0.53560489       9.01763248
H        4.10732412       6.05120182       4.60707092
H        4.26226950       7.12952042       0.14131905
H        8.93332577       7.83172178       7.58418894
H        1.77405226       5.37692738       3.04090023
H        2.26362848      -0.24127413       7.42599630
H        6.26968145       9.10452557       1.56877816
H        7.73017550       5.42782879       5.64922762
H        6.87555885       6.08077431       2.22631502
H        7.39535570       8.52171993       3.00642824
H        4.53803825       4.97215366       9.09311295
H        3.36751461       3.97623253       2.36555529
H        1.40814531       0.27306855       3.71963143
H        7.32841158       6.25280046       4.52488232
H        5.42516470       6.30038404       9.29731655
H        9.18730259       4.25055504       3.52250767
H        0.03128306       4.58307886       8.52872372
H        2.96814609       9.02408314       2.88033080
H        4.18113804       7.42446136       6.46957159
H        6.96780062       3.24545360       8.51046658
H        2.91190219       7.46021652       4.11337614
256
Properties=species:S:1:pos:R:3 pbc="F F F"
H        5.69724369       7.96297836       1.33712649
H        7.23356533       6.82446623       4.06962824
H        1.15995121       9.62693501       3.96870303
H        0.34132013       6.52928495       3.17129993
H       -0.29270729       1.64097238       8.47173882
H        3.63907266       6.62315369       5.17025089
H        4.06984711       3.43255949       3.12401509
H        0.41979787       4.58649635       2.54646158
H        0.36928040       8.66516590       5.87132072
H        1.71381104       2.15405273       1.63122308
H        8.58022785       3.80177164       2.90879035
H        9.16353703       6.57090807       0.38381341
H        3.11072087       3.97378469       3.33631659
H        0.76217955       0.17781067       1.62878716
H        6.86262512       2.64556837       0.51561564
H        1.28849542       4.18117046       7.71593523
H        1.24127805       6.14629316      -0.29445928
H        0.71053386       8.46548271       8.81313896
H        4.75893927       6.55187607       7.85844135
H        2.77100754       7.99202633       6.71467590
H        8.57328129       1.88237417       0.48306766
H        3.05004096       0.32759145       6.84866476
H        8.64342880       7.52578402       1.19740617
H        3.58580518       0.58467531       2.33785343
H        2.68738508       4.92066622       4.47865725
H        9.17732048       3.03827095       9.33434486
H        2.18340683       5.16129971       7.72818422
H        6.25311708       0.12263982       2.28337955
H        4.08649015       5.58890152       0.76898527
H        5.59518814       5.77327394       7.82050276
H        5.45650959       8.20075989       8.89170647
H        5.41835022       1.48041785       2.61335945
H        6.25632572       0.15923041       8.48829269
H        6.68410969       4.45051527       3.31424809
H        7.03251934       8.69656944       8.35957336
H        8.51635933       2.45572305       6.41963053
H        9.42097282       0.26776779       4.45998192
H        2.41528893       7.13102007       5.09844875
H        6.90563345       1.84182882       5.25316668
H        5.57883024       1.27292418       7.85808849
H        3.82555628       0.37221324       0.71767312
H        2.93235302       0.19226548       4.44817352
H        5.43643951       0.39983806       1.43931675
H        7.85456562       1.98215818       8.51070118
H        2.15296888       5.30932760       3.57782602
H        5.35923576       2.99413490       5.68347883
H        4.86924410       2.20139217       0.50212222
H        4.49791813       1.22861874       8.10535431
H        4.60639191       4.49616528       0.40407705
H        9.63492870       6.15102577       6.49201202
H        7.56100082       0.53860694       2.42771435
H        7.96211195       5.82164526       7.20602083
H        1.48453808       1.15879333       5.15194416
H        7.73475409       0.64144647       4.17081785
H        0.09124153       7.52901745       5.25455379
H        8.78945827       3.28359032       2.01532388
H        3.51125169       3.80131221       2.08659196
H        7.66460562       0.69679677       0.18997726
H        0.44453886       3.35718799       4.63223410
H        5.74647522       8.17258835       7.09143686
H        4.54270887       5.16108751       4.21373272
H        5.29637241       1.83329022       1.57828569
H        8.73531914       4.28018093       2.09836745
H        8.43953896       6.57540703       1.46101356
H        5.53068066       0.22772807       5.33762646
H        5.49671602       1.68284667       4.76496887
H        6.89271307       8.30736351      -0.07272332
H        0.46897793       1.15229404       4.88244057
H        5.81803751       1.81029761       0.57324028
H        1.47865462       5.07448244       4.53427267
H        1.18229651       6.19359779       2.53032303
H        1.66115189       8.32316589       8.08204460
H        1.09805894       5.07803011       5.88935137
H        1.59418607       5.91968584       6.85540009
H        8.94690323       2.74596024       5.57332611
H        9.30040359       8.29597473       8.40990353
H        1.50318122       3.59438586       6.25537491
H        6.13885641       2.14474559       2.68983722
H        6.41815376       4.78362370       7.59715366
H        6.98296213       4.63490534       6.14830875
H        8.88862514       5.32696009       1.16622126
H        2.87763143       8.27170277       4.36406946
H        4.62083864       9.06255722       9.61383629
H        8.64364338       1.48483145       5.07284164
H        0.87936157       7.76411057       3.94169497
H        2.68803763       0.16192879       5.93350744
H        3.55638695       7.12604189       1.12498319
H        2.08888435       0.79740059       7.42387342
H        9.29262066       2.60186505       7.48683023
H        0.13441315       5.02024364       4.36661673
H        1.99411726       7.38381100       4.00342846
H        5.20155048       5.49162245       8.81678867
H        8.09589100       9.23224258       8.51551723
H        1.56281078       8.84596825       1.75783527
H        5.36841726       3.29759097       1.33529592
H        5.97179174       2.79904962      -0.08506113
H        6.61452103       3.99318266       1.05382204
H        8.27246952       1.37055874       3.77191114
H        7.78427887       1.43465209       1.48497200
H        1.32174456       7.14932346       5.48080635
H        8.82275867       7.76654005       7.73071051
H        4.88491344       8.90661716       5.76459789
H        4.62481499       0.91928273       3.10367537
H        5.05446672       8.71374798       2.10509706
H        3.87449551       5.13060713       3.17402411
H        5.01345015       7.82614279      10.00883293
H        6.56543827       1.38053489       9.37826157
H        1.06014490       0.63829064       8.31300926
H        4.28903913       0.62160069       1.59464419
H        6.18300581       1.96318555       6.42374325
H        2.19304323       7.37040281       6.09924412
H        1.98110986       4.22539616       2.47163987
H        2.71209693       6.21898603       4.70264435
H        3.06194806       7.20712185       4.24260044
H        1.28370917       4.48187351       1.78120065
H        4.40684748       8.11869431       8.58231544
H        7.02909851       9.31424618       5.64259243
H        3.79824448       2.84684396       4.38674402
H        9.25434113       8.97614193       9.35838985
H        8.86383629       6.04256344       3.50235319
H        7.35231590       5.20174122       0.33055320
H        3.89717937      -0.40195650       8.61068058
H        1.65808797       6.24703121       4.20032978
H        3.66798949       5.33487558       5.07513857
H        4.41228056       2.24734282       2.96244812
H        4.37229967       9.37579155       2.94009495
H        1.96011150       2.20479035       0.59990430
H        6.29936266       7.55628824       6.34590721
H        2.53733158       8.88471699       8.84427452
H       -0.12075832       7.76598930       2.54706883
H        1.57903016       9.33416367       7.52453089
H        2.50656819       5.35159111       5.58010530
H        8.25569344       0.39345136       5.55139780
H        7.30103159       6.00924349       1.36796463
H        3.05052948       2.87069106       3.19501162
H        4.09708309       0.42625576       7.14742088
H        0.54129755       2.83199215       6.74836254
H        7.27792072       9.08976269       2.57557297
H        1.77269864       7.11796474       0.03979025
H        1.82447577       7.34597635       1.08832514
H        9.27775574       1.48894298       7.17576218
H        7.36687994       5.80791426       3.67118001
H        9.41825485       1.70084548       1.78772259
H        1.15933418       4.03212357       4.15722752
H        0.48332611       1.39574265       9.43901634
H        9.05663776       1.69538081       2.99881291
H        6.52293396       6.32543135       7.35675049
H        2.33371735       2.05156446       3.16911054
H        3.86045051       1.39245939       7.10565567
H        1.88000464       9.30792141       6.40431690
H        7.04731035       2.67353082       7.78461361
H        5.38463163       8.43265629       4.83742905
H        1.25255251       1.37420499       2.41348338
H        5.92156029       8.73235703       6.24386454
H        4.19923592       8.01707649       3.92358422
H        2.20111442       7.58045578       8.48340607
H        4.97251749       6.62364960       9.02377415
H        8.15542126       5.99348831       4.49976063
H        6.73850107       7.15833712       4.87566614
H        7.56143904       6.83083200       0.95776671
H        6.40904617       0.98498267       3.86908650
H        3.78903556       6.16203213       4.20965767
H        3.58791971       2.73523617       6.21464491
H        9.01931477       4.30216646       0.68324256
H        0.83893996       6.77921247       4.42960358
H        4.56889009       4.49038410       1.37845290
H        2.62483287       3.35828972       4.04900408
H        3.89053345       5.61676788       6.10281086
H        2.37918782       6.03446960       2.52344251
H        4.70326853       6.65202188       3.94105244
H        6.01072979       4.76698303       9.29187965
H        5.70539427       9.15491199      -0.08693393
H        2.79979277       1.16513216       4.90564251
H        2.91722155       7.85076332       1.42932498
H        9.36505795       1.54442799       5.94881201
H        4.37364531       3.19993234       5.42757082
H        7.29557228       3.73032069       5.15869427
H        4.04326773       3.46608901       1.19002604
H        4.08977556       4.19912243       4.27219152
H        7.68992996       3.44440365       3.75035596
H        3.73553610       6.70700026       7.68772459
H        3.61851549       8.77409935       3.64035630
H        7.99863386       5.47791147       6.11582422
H        3.27048731       1.20853078       5.79853964
H        6.90314770       9.07033443       1.28899252
H        2.31027055       0.54965651       0.18484931
H        2.80396295       8.21432304       7.95620441
H        3.51465750       8.16696835       0.16468187
H        5.01109600       0.73388427       9.43987560
H        3.80409074       0.47657645       5.42522049
H        0.10611651       8.67774105       3.51958466
H        3.87604380       4.52203608       5.92077827
H        7.92764902       4.35484457       0.40288123
H        3.51421833       5.76182175      -0.11653557
H        3.88089323       8.89715004       1.98031235
H        1.24614656       1.79496026       7.08719921
H        2.61359596       8.89718437       2.27044630
H        6.88482714       3.60847878       9.52828979
H        4.36355925       1.94655108       4.38378191
H        4.06475401       9.02817631       5.09802675
H        9.50867462       6.59584188       2.19343519
H        2.51424074       2.59963632       7.04144526
H        7.67135620       8.37795639       6.86756039
H        0.04100393       8.60289574       6.82561445
H        2.47179794       2.03321195       5.29931116
H        0.91257119       3.26112843       8.07905674
H        3.86301255       8.46553230       7.33487129
H        4.49946117       8.21477985       2.68960905
H        8.43637085       4.68349075       6.80949116
H        6.37878752       6.21621799       3.03412724
H        6.73035908       6.08572388       8.30730534
H        8.89196205       3.35207653       6.90182257
H        5.47093248       3.61212969       0.05508565
H        9.45521259       1.02234733       0.94373214
H        8.09284401       6.03221416       0.63018441
H        1.82870758       6.08290291       5.49751282
H        7.53522110       3.72741342       2.73365045
H        1.01780999       0.22436257       5.88958406
H        4.29234552       2.00070405       8.91302967
H        0.71376157       3.53356719       3.30306911
H        5.42397976       1.91040003       5.76530266
H        2.63203406       6.14327145       6.13744068
H        5.44534588       2.78293300       7.76762056
H        8.45597267       4.86320019       4.60535574
H        1.85703444       8.60295200       4.16018057
H        1.88818240       9.19539070       0.00079786
H        3.09449625       2.91260767       0.64622140
H        0.62325728       0.50551724       7.27410173
H        4.89227724       0.89984030       6.12590170
H        1.41302538       7.09300280       3.04698777
H        8.65482521       0.89521217       9.16550446
H        0.58946872       8.96908188       7.93495703
H        5.68995094       5.57353354       1.60045755
H        0.02568037       4.50346565       6.32735538
H        0.64431155       6.67522001       0.70041412
H        1.87475741       8.05857372       5.11480331
H        5.86993313       7.20269585       2.85276604
H        3.01158786       9.05294037       0.33908200
H        7.98713493       8.50173664      -0.16602361
H        1.45602846       6.23978901       1.48948801
H        2.45909023       6.28605604       7.34323406
H        6.57912445       1.19715548       2.34324384
H        9.12110806       7.24911404       9.04120064
H        4.06999254       5.51707029       7.84748697
H        7.54903555       1.98247504       9.50350189
H        3.97134662       3.45690703       9.68415833
H        1.89972436       3.07253861       2.54413557
H        1.95138729       0.92730623       3.67093873
H        6.08809662       6.06347370       3.97582936
H        7.62900639       5.15923500       8.77900600
H        9.39230633       3.96210003       3.65009069
H        6.52459764       2.75828362       1.58206439
H        2.42361569       7.28960133       2.13282442
H        0.26248083       6.07177448       5.03505754
H        6.58978510       2.25554013       8.82695484
H        8.56094933       6.98345852       3.98067236
